112
Properties=species:S:1:pos:R:3:momenta:R:3:forces:R:3 energy=-496.9467769104759 pbc="F F F"
H       -7.86396475     -15.90678879       2.38822641      -0.04009934       0.16867590      -0.01804354       0.16541849       0.25867322       0.54002519
C       -8.09191079     -16.54479371       1.55928893      -0.21096578      -0.03034516       0.99644320      -2.09451978       0.75451388      -0.83046627
H       -9.01579791     -16.13110204       1.05809246       0.12529267      -0.03990069       0.16599361       0.97647878      -0.26639368       0.20528345
H       -8.41011688     -17.49353307       1.92952891       0.22974274       0.00840504      -0.06232211       0.06183099      -0.89514832       0.39597802
C       -6.89622133     -16.62110568       0.70859318      -0.23707868       0.43420697      -0.69442122       2.09185476       0.17298317      -0.06283554
O       -5.76396565     -16.57963715       1.24256315      -0.82655211      -0.21492891      -0.45966616      -0.62634198      -0.40893842      -0.13635383
N       -7.00802925     -16.67371800      -0.64169451       0.95964385      -0.29538737       0.59480435      -1.27069019       0.13773599       1.15598100
H       -7.95825761     -16.53196144      -0.98908584       0.15165384       0.04331041      -0.02495655       0.41729838      -0.09431725       0.05653358
C       -5.97712284     -16.31229879      -1.59822457      -1.14876398       0.39049361      -0.30333506      -2.04208610       0.31611806      -1.32265577
H       -5.09618215     -16.88865013      -1.49296805       0.04665653       0.03633410       0.06653900       1.02452109      -0.43521638       0.77189760
C       -6.64641343     -16.81509845      -2.91777665       0.22870672       0.21785545       1.09760677       2.03541660       1.48934840      -0.76123202
H       -5.94632514     -16.82994358      -3.77202563       0.25012345      -0.04611276       0.06526373       0.06696198      -0.22631659       0.50297893
H       -7.06260878     -17.78775211      -2.77632772       0.02030503       0.07167701       0.18423773      -0.22540074      -0.63005322       0.15405727
H       -7.36686980     -16.11506758      -3.27411513      -0.21062563      -0.09705474      -0.21257042      -0.99800259       0.54854774       0.08304488
C       -5.71230706     -14.76191710      -1.42192933      -0.64804544      -0.27557905       0.14532604       1.53083413       0.10748409       0.41642707
O       -6.01328900     -13.88509019      -2.22666680      -0.22348885      -0.06616859      -0.90929548      -0.41786014      -0.50504936       0.03119507
N       -4.99524366     -14.51969366      -0.25788556      -0.73868266      -0.12516246       0.76160617      -0.45575569      -0.67499318      -0.42510174
H       -4.90245166     -15.36746596       0.35719436       0.08223041       0.10921626      -0.16820911      -0.09940723       1.06009901      -0.27956667
C       -4.79941586     -13.15706047       0.30528242      -0.18793925       0.28064338      -0.28865552      -1.27572037      -1.23358499      -0.30809715
H       -4.89335516     -12.53653384      -0.57906314      -0.01444816      -0.06722174      -0.11573444      -0.06822257       0.49356752      -0.17708761
C       -5.92682853     -12.76321540       1.35453463      -0.64735499      -0.32808586      -0.73497425       0.77130594       0.13551086      -0.77957652
H       -6.89746562     -12.39384032       0.88564669      -0.02377896       0.17743306      -0.17590567       1.65998864       0.15366139       0.41507588
H       -6.25393173     -13.61372073       1.92712683       0.04355160       0.01034155       0.06241960       0.23755139      -0.75735925       0.20283672
H       -5.37072486     -12.12869696       2.06936497      -0.07119225       0.03394768      -0.02238042      -0.89337376       0.37984505      -0.33779854
C       -3.34707365     -13.00839893       0.79085127       0.04619662       1.30186461      -0.56478956      -0.85497779       1.11729132       1.98787579
O       -3.08519974     -12.37316958       1.84151341      -0.15909874      -0.02122767      -0.71520026      -0.12123365      -0.86095017      -1.45183915
N       -2.40850887     -13.60869623       0.04690093       0.29830720      -1.10981980       0.41439467       1.43382687       0.32253848      -1.01909102
H       -2.57329843     -13.90303175      -0.93949106       0.20972573       0.30872230      -0.09993948      -0.19359792       0.31890111       1.33772133
C       -0.96969786     -13.44094923       0.37981001       0.06309599       0.69370147      -1.01459157       0.07892061      -2.13310784      -0.76789396
H       -0.78936865     -13.55072605       1.43477445      -0.09620678       0.11007275      -0.38982011      -0.45445103       0.00492517       0.53271078
C       -0.25774698     -14.61030349      -0.38277914      -0.06032207       0.44688055      -0.18692306      -1.09673552       1.65503707      -1.43941985
H       -0.15353244     -14.24048175      -1.45629146      -0.17433872      -0.13811230       0.07972226      -0.24848184      -0.81538284       1.18062541
H        0.70841671     -14.80584028      -0.02560978      -0.09299022      -0.17999488      -0.26411256       1.44310675      -0.10545688       0.64991540
H       -0.84263364     -15.50796859      -0.29399053       0.18671825      -0.13750821       0.00999020      -0.29124533      -0.40179264      -0.11940663
C       -0.31918539     -12.19647792      -0.11456575       0.09004666      -0.61143300       0.48285663       0.39695430       3.73267154       0.38811620
O       -0.16121071     -11.93625279      -1.30388519       0.14588148       0.31391042       1.23449249       0.13487430      -0.65927698      -0.62054166
N        0.08118975     -11.23949015       0.82201423       0.56089757       0.44955972      -0.05641231      -1.56664229      -2.39244440       2.38742349
H       -0.33366920     -11.32075984       1.81747199       0.05003892       0.09361993      -0.10712534       1.15441482       0.23499867      -2.07891132
C        0.87507281     -10.05338373       0.55367965      -0.27639163      -0.22727101      -0.26540481      -1.16208386      -0.46158396       0.31494213
H        1.57804671     -10.36594727      -0.20188503       0.24892208       0.20121309      -0.29417479       0.28211032       0.42145667      -0.64042324
C       -0.07654018      -8.91306819       0.14554062       0.57427793      -0.32307932      -0.70995107       0.54072551      -0.60827098      -1.49066360
H        0.55278010      -8.06682705      -0.01908703      -0.04246815       0.07174566       0.13515234       0.17728807       1.11529401      -0.06132279
H       -0.57555328      -9.12801786      -0.82989080      -0.24035293      -0.24838152      -0.11174348       0.41202380      -0.12892865       0.73936356
H       -0.83836264      -8.70913802       0.87624683      -0.10555806       0.23339630       0.05889571      -0.09696277      -0.01055239       0.54016659
C        1.59656068      -9.69962753       1.85978009       0.43583941       0.17055548      -0.30528124       0.40337568      -0.22032498       0.47364679
O        1.02743831      -9.92710474       2.92825694       0.65318901       0.15650241       0.13018858       0.02201703       0.17072231       0.05301230
N        2.87573693      -9.19310976       1.82962579      -0.10197159      -0.36509665      -0.03814413      -0.76420063       0.43260109      -1.81551990
H        3.28083364      -8.82726985       0.94141587      -0.00656111       0.05989979       0.04991842      -0.35783958      -0.52059254       0.94173565
C        3.44797404      -8.65256384       3.02403684      -0.49995610       0.53421141      -0.10988398       0.90928482       1.58148121      -0.00447620
H        2.67315397      -8.30208491       3.67937595      -0.08489962       0.22112206       0.04881723      -0.70274226      -0.14164578       0.40330303
C        4.34753680      -9.60747996       3.74758321      -0.17149177       0.57055842      -0.48907814       0.69617353      -1.56214446       0.51067152
H        5.41630976      -9.69518239       3.34005324      -0.12748299      -0.02252761       0.20487959      -1.61732921       0.16928151       0.45208238
H        4.34885310      -9.30438260       4.79287637       0.30496686      -0.14016234       0.03170378       0.53605052       0.05391122       0.16196932
H        3.85112482     -10.60312001       3.76669106       0.13286535       0.03035295      -0.15826066       0.48053373       0.43211054      -0.18582885
C        4.36528407      -7.43445125       2.67961959      -0.25258796      -0.11956487       0.30882673      -1.29232108      -1.38107675       1.12987328
O        4.92791248      -7.48401556       1.61622804       0.14784084      -0.81119922       0.07878328       1.21560958       0.73943700      -1.95496876
N        4.58463265      -6.52964795       3.65798939      -0.27269761       0.25137471      -0.44455554      -0.09200248      -0.41017012      -1.07099869
H        4.15884716      -6.66976048       4.54098525       0.25345909       0.17749976      -0.01969306      -0.33154482      -0.04542219       0.99371152
C        5.69752193      -5.63077976       3.60946892       0.67258519       0.00453782      -0.57968980       1.37623275      -0.64395057       0.11604128
H        6.48179937      -6.06748678       2.94696130       0.06277117       0.27682592      -0.01044493      -0.66660534       0.16693909      -0.02516661
C        5.31564093      -4.26509953       3.08730736       0.25901661      -0.44588028       0.05466237      -1.90958750       0.24214730      -0.61230445
H        6.13906281      -3.59166438       3.05149080       0.29421451      -0.06119827      -0.01123394       0.97426107       0.33925968      -0.56058756
H        4.79114019      -4.40501403       2.06854094       0.09793374       0.02000884      -0.22535620       1.00206944       0.39632556       1.51349616
H        4.62147485      -3.72134830       3.76499811       0.14011450      -0.04306055       0.03776395       0.00565244      -0.67992660      -0.26884583
C        6.36372369      -5.64839773       4.99769018      -0.05810818       0.41035904      -0.24850747      -0.56162577       1.17318392       1.79950368
O        5.74776124      -5.97543903       6.04709425      -0.36419880       0.96392339       0.21836631       0.87494726       0.08705578      -1.71202174
N        7.60601506      -5.09187666       5.03181874       0.17341336      -0.40478609       0.49908663      -1.17005634      -0.89083379      -0.46388572
H        8.11634619      -4.80446087       4.22660464      -0.02135190       0.20652922      -0.00177108       0.13630714       0.30842525      -1.12089653
C        8.39844593      -4.92702446       6.18299647      -0.17437238       0.01358364       0.34169705      -0.38874679       0.53609447       2.44357526
H        7.79136428      -4.37481557       6.94641783       0.08173074       0.07967346      -0.31588240       0.16284369      -0.73164246      -0.12877822
C        8.94048436      -6.25102739       6.72387185       0.86182588      -0.07869722       0.58601728       1.80004532       1.00411516      -1.15503171
H        9.63002874      -6.03274992       7.53610999       0.12992142      -0.28505873      -0.08851971      -0.15221955      -0.26082655       0.39154146
H        8.17094899      -6.92124760       6.98837923      -0.00581499      -0.02466830       0.06405110      -0.82427046      -0.72077334       0.39037893
H        9.58403224      -6.66610045       5.90988989      -0.04200256      -0.11587650      -0.37180349      -0.54333062      -0.05074356       0.52900065
C        9.50351891      -3.94474205       5.86498673      -0.27407454      -0.58338867      -0.17164106      -0.04075720       0.98787204      -3.60745452
O        9.58754242      -3.56510333       4.64766135       0.87092958      -0.50464772      -0.30284566       0.34977753      -0.53119414       1.78246098
N       10.29108770      -3.45736114       6.80914963       1.54997763      -0.41355376       0.54388492       0.50155200      -0.35559603       2.52735342
H       10.21628555      -3.81999099       7.80978985       0.11604965       0.20943993       0.07872728       0.21003068       0.81610857      -1.67597201
C       11.42203603      -2.51165508       6.58895420      -0.70075443      -0.16541775       0.36484441      -0.99510825      -0.39136535       0.65292707
H       12.07467717      -2.98080272       5.85151984       0.10256569      -0.25956064      -0.10701444       0.22170795       0.07899981      -0.00043924
C       10.92519810      -1.15590117       6.04859966       0.28751838      -1.03425505       0.65484634      -0.14831298      -2.91349825      -1.51913403
H       10.26974553      -1.37137538       5.19826479       0.33605493       0.05792878      -0.04532354      -0.08373629       0.07778826       0.28645287
H       10.47724208      -0.56792368       6.74549221      -0.06628462       0.09295433      -0.11519898      -1.66170686       1.38235946       2.23999736
H       11.69299223      -0.58384998       5.66412147      -0.21691418       0.25750543       0.06411392       2.05272157       1.06434269      -0.86273316
C       12.14412181      -2.39080003       7.97279942       0.15797712       0.85962239      -1.15534433       0.23689276       0.67247551      -1.00512917
O       11.69406060      -2.89622081       9.01121210       0.48063005      -0.64504429       0.74602238       0.46935472       0.20144999      -0.78740414
N       13.29493556      -1.63724277       7.89604651      -1.40266551       0.37749797       0.40855120      -1.68086964      -1.33317942       0.75989566
H       13.53141236      -1.12274392       7.06689394       0.23530584       0.29261725       0.00117356       0.17281112       0.17001927      -0.08964395
C       14.09461242      -1.52835975       9.09766375      -0.34256754      -0.55670161      -0.44408628       0.14209375       0.39907692      -1.59267549
H       13.36410340      -1.64608353       9.89251615       0.08626559       0.21450726      -0.09338460       0.22355768      -0.21394875       0.54613061
C       15.19057974      -2.60672658       9.10731992      -1.00696477      -0.37163024      -0.23539668       0.74748214       0.37542006       1.27367299
H       15.86006618      -2.60583789       8.25270026      -0.10986249       0.05200255      -0.33824807      -0.11162563       0.64175912      -0.44873866
H       15.82661428      -2.28168002       9.97032496      -0.02817553      -0.27089599      -0.04302447      -0.25805174      -1.12365331      -0.39067847
H       14.84996519      -3.65988855       9.13715732      -0.18260908       0.04003759      -0.02743523      -0.24077923       0.72103756       0.59187319
C       14.68968721      -0.10060091       9.13640086      -0.51737016      -0.35974906      -0.91652408      -0.61376873       0.91448539      -1.77184462
O       14.64190259       0.68922866       8.14243375      -0.47136885       0.18794240       0.75498662       0.42920025      -1.79240866       1.88325438
N       15.26118711       0.19706654      10.30534901       0.04520848      -0.63033464      -0.37906428       0.99478274       1.15108650       1.06464808
H       15.10818962      -0.33094921      11.16718620      -0.05354270       0.17038939       0.17440523       0.14710687      -0.19663589      -0.60425333
C       16.22568226       1.32182609      10.48898692      -0.26689672       0.92287232       0.47992861      -0.76587565      -1.47441054       0.93807241
H       16.67605847       1.46751168       9.53493476       0.08793644       0.27728540      -0.35588427       0.12688448       0.57807828      -0.89473770
C       15.58645437       2.51477065      11.14407423       0.91018066      -0.38147197       0.58399386      -0.89563515      -0.45917948       0.37592999
H       15.19581772       2.15160673      12.11700116       0.23229446       0.06324840      -0.06289980      -0.03916538       0.35697279      -0.43179980
H       16.28790185       3.30078462      11.36641920       0.34729470       0.11681318       0.14592377       0.31157242       0.39746765      -0.12771470
H       14.76795731       2.85868892      10.51830838       0.04214930       0.10587166       0.06564113      -0.11224803       0.29015910       0.09118357
C       17.32009354       0.82505738      11.43225333      -0.57403020       0.28300655       1.22357515       1.11260064       0.88748739      -2.10245820
O       17.24785702      -0.09736071      12.19424276       0.03632271      -0.71142739       0.32036205      -1.02833903      -1.78133124       1.75237856
N       18.48894891       1.46795449      11.24409165      -0.88666375      -0.40701897      -0.12475985       1.66463277       0.49207904      -0.16572533
H       18.60696562       2.13973681      10.48312335       0.09771788      -0.19432915      -0.10296704      -0.27741908      -0.42260201       0.46483355
C       19.73508266       1.04993460      11.93226925      -0.21451798       0.17580740       0.95271508      -0.57331365       2.03789843       0.65527147
H       20.06542907       0.06792971      11.73204950       0.30208279      -0.21242145       0.08435169       0.04751030      -1.24531864      -0.61614832
H       20.52371622       1.76514227      11.65238296       0.22553556      -0.01058143       0.22079001      -0.26523221      -0.27511788       0.01565498
H       19.61321953       1.12085892      13.02447194       0.11180362       0.10088570       0.33046275      -0.13122252       0.01591428      -0.31142927
