112
Properties=species:S:1:pos:R:3:momenta:R:3:forces:R:3 energy=-498.12149913765904 pbc="F F F"
H       12.98440452      -4.60811674      -0.46004661      -0.26854633       0.31879889      -0.09760029      -0.20100443      -0.45077335       0.14219775
C       12.46017044      -5.46182160       0.00193916      -0.38498880      -0.13153350      -0.64202352       1.11378522      -0.41273224       0.29969415
H       13.12334964      -5.99322344       0.69712706       0.03310016       0.10271587      -0.13133182       0.52734616       0.00095585      -0.51573687
H       12.15472064      -6.21761359      -0.73767896      -0.19048171       0.03632010       0.19192546      -0.12325264       0.40489073       0.21442055
C       11.38381269      -5.09780874       0.94541028       0.26010408       0.58123686      -0.81059285      -1.77984258       0.13824885      -0.49978297
O       10.74608330      -5.97833325       1.55675445       1.51025296      -0.44437080       0.86651763       0.28096275       0.73372508       0.04045682
N       11.06413273      -3.76992568       0.98892274       0.05686073       0.65289377      -0.05667081      -0.73106731       0.82912671       0.37564887
H       11.55109531      -3.16545235       0.31189537       0.02080356      -0.06254424      -0.01936081      -0.49698786      -0.26094837       0.81685526
C        9.88981083      -3.27351031       1.81117415      -0.55367990      -0.36741094      -0.02747102      -0.11263700       0.07520578      -0.58452205
H        9.87333292      -3.90920176       2.72092221       0.13817288       0.01303883       0.11668422       0.24789580       0.64049993      -0.41149676
C        9.80385889      -1.72110045       2.11916841       0.89768183       0.42662980       1.25336026       1.66464117      -1.37496608      -0.13920048
H       10.79072598      -1.23887084       2.32112891       0.00714809       0.15172556       0.11971065      -0.67029462      -0.63843137       0.40754453
H        9.46677786      -1.24356415       1.22601738      -0.15015135      -0.22999591       0.19213713      -0.60819646       0.47944150      -0.58666374
H        9.07614897      -1.62909649       2.91975037       0.05968441      -0.04859204      -0.11431363       0.11311593       0.31619832       0.01873508
C        8.50881124      -3.58977857       1.16848140       0.35592280      -0.74114809       0.02346659      -0.61705890      -0.24841596       1.22336625
O        7.47490180      -3.51662407       1.85531647      -0.13104386      -0.49532488       0.32568081       0.75175570      -0.04092035       0.00769288
N        8.43386030      -4.00113986      -0.09748217       1.37514182      -0.82347954       0.16614725       2.38317303      -0.22899961      -1.93122365
H        9.28589128      -4.00609648      -0.71954914      -0.03078168      -0.14861027       0.07982696      -1.17365633       0.04891085       1.31458151
C        7.29718414      -4.65924028      -0.65459457      -0.43551202      -0.89395722      -0.65086839       0.06386512      -1.61950212      -0.41577838
H        6.40582913      -4.15717121      -0.45269741      -0.21385779       0.01926973       0.18118634      -1.37968344       1.34972734       0.42186599
C        7.43738178      -4.81142502      -2.16818628       0.52141891      -0.79858223      -0.34138165       1.11619161       0.05422235       1.34630017
H        7.39131481      -3.89899662      -2.70169651       0.14181998       0.02615262       0.11379419      -0.40283582       1.11497494      -0.39129625
H        8.37664413      -5.25499330      -2.43916267      -0.03912621       0.05548654      -0.16837679       0.73573847      -0.44396650       0.02735505
H        6.70479459      -5.48485862      -2.45814361       0.03628690       0.06397889       0.14478378      -1.57415114      -1.05954612      -0.94961958
C        6.96588553      -6.05902160      -0.02164130       0.20402171      -0.12364180       0.26366457      -0.21500995      -1.44747011      -0.27245110
O        5.76555607      -6.44246012       0.08891289       0.09129437       1.39861061       0.14018086       2.60717107       0.89562972       0.05636248
N        8.08718896      -6.87943979       0.21538867      -0.95110173      -0.10285865      -0.31426893      -3.08991503       0.24007739       0.34339505
H        8.94366088      -6.38360570       0.20492769       0.06878796      -0.15868156       0.10714675       1.14144469       0.16238910       0.34051070
C        7.88786050      -8.13328612       1.01200823      -0.65350642       0.18103698       0.61128870      -1.13366440       0.81503319      -0.83452453
H        6.92485968      -8.51639517       0.60349255       0.19370217       0.00432580      -0.09171824       0.78166455      -0.23621155       0.14964807
C        9.10532102      -9.02771975       0.94386513      -0.33679247      -0.42510035      -0.94935382      -0.18697910       0.15073198       0.10227806
H        9.52958632      -9.17599384      -0.06544661      -0.07808374      -0.17011225       0.19606763      -0.18253534       0.30443762       0.49866786
H        9.77783449      -8.55290649       1.65405978       0.15676267      -0.37314919       0.10517786       0.86145199      -0.20702043      -0.36888491
H        8.85550694      -9.98985035       1.36592983      -0.14034234      -0.02596313      -0.12508608      -0.12268352      -0.38450545       0.06896514
C        7.55339925      -7.85052133       2.50242035      -0.48276699      -0.33702769      -1.38834391       0.53457474       0.36121246      -0.67440092
O        6.80845097      -8.59144093       3.14729825      -1.06750832       0.75104545       0.64290423       0.22554799       0.58159318      -0.16328510
N        8.16079830      -6.72597872       2.98185312      -0.52052689      -0.80398797       0.29860445      -1.49738017      -0.34084849       1.01221109
H        8.99219652      -6.36435750       2.55653379      -0.02843800       0.00592962       0.05629063       0.35669589       0.23247605      -0.56334373
C        7.91790516      -6.32753888       4.38141205       0.85538837      -0.24957947       0.07607659       1.12621732      -2.06666169      -0.26841856
H        8.23190080      -7.21955022       4.98202723      -0.00234774      -0.10173480       0.09593762      -0.81281442       0.59605386      -0.07206712
C        8.82256554      -5.19457413       4.73270092      -1.34887613       0.02609539       1.03434598       0.33631880       1.27053663       1.41925054
H        8.94416162      -5.08043373       5.84137771       0.28210171      -0.43541604       0.23907050      -0.09065592      -0.28518324      -0.92596096
H        9.80968903      -5.15495198       4.26303195      -0.15424209       0.32661180       0.06103991      -0.03799179      -0.74583757       0.11300447
H        8.33773343      -4.30170206       4.40532522       0.09024451      -0.02674803       0.21237894      -0.31897174       0.99463063      -0.22931203
C        6.46514708      -5.99043762       4.70329887       0.43662592       0.10315810       0.36727552      -1.11462283      -0.12037933       2.31721624
O        5.96915856      -6.26181025       5.81914784      -0.41860661      -0.26706978       0.33500520       0.74231682      -0.51493025      -0.69303824
N        5.76206401      -5.24077041       3.86407897       0.27342218       0.08372056      -0.11969663      -0.69791417       1.40295327      -3.79096264
H        6.17619524      -4.98306332       2.94574117      -0.03930496      -0.05914779      -0.07362928       0.02945338      -0.33947048       0.92823321
C        4.30755013      -4.87651105       3.89945088      -0.99708993      -1.46046686       0.36669793      -0.24525709       0.40854568       0.86370236
H        4.11305417      -4.50307340       4.91840054      -0.04387441       0.05576510       0.23748815      -0.11578287      -0.39450503      -0.27270523
C        3.91717734      -3.74292615       2.90460865       0.60749063      -1.49082611       0.09240434      -0.16170451       0.10157224       0.53210841
H        2.79264770      -3.63982746       2.81840746       0.07118696      -0.01627028      -0.12912672       1.23497487      -0.14290346       0.42986191
H        4.37149472      -2.77390996       3.20454764       0.19701017       0.16776130       0.05914614      -0.33862231      -0.59392679      -0.18151492
H        4.26726913      -3.98431765       1.91361857       0.17844610       0.06295936      -0.18481846       0.24886525      -0.04246724      -0.51218436
C        3.35762510      -6.08574826       3.67485296      -0.04837440       0.37726866       0.13664707       0.38199260      -1.25083114       1.47906056
O        2.50399620      -6.41803578       4.51327603       1.26822152       0.36085410       0.25363244       0.42387944       0.65458559      -0.69977659
N        3.70180437      -6.88646011       2.63006020       0.31353049       0.45352849      -0.55991905      -0.50878719       0.52582378      -0.87990353
H        4.06237310      -6.33090005       1.84734215       0.14342324      -0.22684883       0.00143769       0.36260079      -0.77035286       0.07099800
C        2.96474129      -8.11362314       2.26903296       0.37606004       0.01467183       0.15528594      -1.59686876      -0.01900158       0.09707697
H        1.82982871      -7.92860349       2.09857094      -0.01518520      -0.18060761      -0.35345652       1.71433255       0.10715621       0.37476402
C        3.51694680      -8.70261796       0.95195350      -0.60344583      -0.12388271      -1.37068030      -0.64823107      -0.22107980       1.59969777
H        4.50259401      -9.11043604       1.07253757       0.17682058       0.08050062      -0.06367818       0.59853516       0.07591135      -0.07248685
H        2.85605102      -9.49192619       0.67129824       0.18602864       0.10090241      -0.08313205      -0.45718804      -0.85842511      -0.07965572
H        3.42836104      -8.00271111       0.16389466      -0.21431210       0.34562377      -0.21894385       0.37981692       0.98013009      -0.75515378
C        2.91469226      -9.17004996       3.46138784      -0.97793942       0.85604995       0.00130706       3.73307396       2.39318084      -0.76862431
O        1.92954835      -9.77729771       3.68903979      -0.34618381       0.67581240      -1.20145395      -3.23190138      -2.02078815       0.62791736
N        4.08661044      -9.29859789       4.15670962       0.40097104      -0.19282161      -0.35650827      -0.28849909      -1.00029779       0.03441590
H        4.85399265      -8.74521183       3.86252307       0.19557196       0.34045261      -0.02582715       0.94771198       0.40794294      -0.36753927
C        4.32350733     -10.28467128       5.23793306      -0.50827279      -0.09577696      -0.20601407      -0.50186486       0.52571569      -0.48458763
H        3.65296662     -11.12984310       5.08455222      -0.02507673      -0.12656338      -0.14624654      -0.34799784       0.16321879      -0.11696527
C        5.71157091     -10.84970130       5.27678093      -0.71041049       0.35145956      -0.12677910       1.54195320       0.96910504       0.52911943
H        6.47244612     -10.14774359       5.69512330       0.41076307       0.10713501       0.02966237      -0.52839824      -0.05510602      -0.69181438
H        5.80470980     -11.67139037       5.95320888       0.02374125      -0.02823558      -0.21463662      -0.53089846      -0.73795998       0.58117348
H        6.04363718     -11.21723691       4.32397810       0.37145408      -0.00802024      -0.14817969       0.13085078       0.07554032      -0.62073059
C        3.89979383      -9.70146714       6.57988940      -0.90013601       0.69069872      -0.29623194      -1.20217363       1.78336413      -1.03465194
O        3.40981662     -10.41318484       7.43293815       0.15862588      -1.17732674       0.04385491       0.01510035      -0.87174271       1.11399240
N        3.77543349      -8.32420307       6.63236882      -0.25962290       0.39091517      -0.32057320       1.34794467      -1.13588595       0.02590549
H        4.33614724      -7.77432971       5.99458155      -0.07232841       0.23086633       0.26703240      -0.08436750       0.19877166       0.11783755
C        3.22921798      -7.71348517       7.82177617       0.74716852      -0.03071521       0.45339638      -0.12815627       0.24253606      -1.01592985
H        3.54653029      -8.25210978       8.71130909       0.03811601       0.22378974       0.09557545      -0.01241102      -0.26160327       0.00909515
C        3.68645165      -6.26733742       7.97971507       0.23787008       0.84753062       0.34159077       0.86645603       1.19673470      -0.47264647
H        4.81373922      -6.25682195       8.12821849      -0.06762262      -0.13541509       0.18640676      -1.32357617      -0.02771544      -0.13270312
H        3.50300051      -5.59236930       7.06297151       0.13954948      -0.10351443      -0.19378320      -0.01458115      -1.15787112       1.35979158
H        3.21294837      -5.83573425       8.88827219      -0.10813447       0.01808766       0.24391087       0.21121568      -0.16732843      -0.64400389
C        1.70551729      -7.90482165       7.78652839      -0.64343976       0.47498444       0.38495559       1.04652251       0.88719760       1.13409596
O        1.20660449      -8.07896611       8.89709199      -0.08522880       0.88031124      -1.03244286      -1.11801846      -0.38101101      -0.23202137
N        1.04388532      -7.82650452       6.60945931      -0.42134083       0.01534212      -0.68802101      -1.42989699      -0.79819109       1.23275855
H        1.46532276      -7.40694116       5.82153920      -0.17855230       0.01693294       0.21566345       0.79580483       0.30639854      -1.02173264
C       -0.43525694      -7.95152505       6.62043406      -0.71495362      -0.65961661      -0.23396940       0.24850100       0.40035345       2.38622101
H       -0.73433510      -7.41432316       7.57501627      -0.06218600      -0.06390513      -0.03723250      -0.16097549      -0.23965243      -1.21819989
C       -0.97852978      -7.44455685       5.33359153       0.13233375       0.07276593       0.53233755      -1.47009287       1.72236087      -2.02290097
H       -0.34209668      -7.84768422       4.54162074       0.45039180      -0.01590812       0.00307039       0.13847658       0.19395713      -0.15142509
H       -2.01304714      -7.77141806       5.00227375       0.13287069      -0.12790480       0.22037486       1.01897099       0.09054971       1.10425247
H       -1.01125130      -6.28898134       5.21459027       0.46343685       0.07907454       0.01873829       0.37852813      -1.84291936       0.44199782
C       -0.92968654      -9.38545709       6.92912759       1.49191998       0.83476880       0.11254830      -0.04556505      -0.55768271      -0.10271304
O       -2.07783801      -9.60388640       7.29849358      -0.08058683       0.03769343      -0.53326394      -0.06595436       0.24891485      -0.10451985
N        0.00281885     -10.33868659       6.72612187      -0.18763435       0.32595584       0.30931087       1.20968306       1.19845252      -0.39378615
H        0.90536543      -9.92669508       6.44285472      -0.04422838       0.19514926      -0.38445442      -0.49376330      -0.70050504       0.01919225
C       -0.11666729     -11.75673972       6.81703892       0.15688558       0.59356573      -0.29504233       1.36501779      -0.27888782      -0.07925440
H       -1.16252504     -11.99515825       6.84172765      -0.03278067       0.03520812      -0.02562990      -0.64780529      -0.20568211       0.14243921
C        0.55759035     -12.43834268       5.58638830      -0.33893835      -0.15454907      -0.10130690      -0.41192648       1.71768871      -0.02195777
H       -0.08684927     -12.27703552       4.70113124      -0.08698520       0.24893873      -0.00064038       0.07885337      -0.65679546       0.43957456
H        1.47834866     -11.88740914       5.28698717      -0.10194887      -0.25915597      -0.02447791      -0.27267843      -0.61330006       0.61530271
H        0.71606661     -13.44833630       5.91508541       0.13343553      -0.03022141       0.10947437       0.21342982      -0.65407660      -0.61042676
C        0.51796009     -12.37479002       8.11072415       1.51220302       0.22252218       1.07696688       0.72960558       3.34995269       1.07951077
O        0.40525103     -13.52492625       8.40970574      -1.36781934       0.22386517      -0.16898260      -0.46375590      -2.89772802       0.00714879
N        1.17514009     -11.49495152       8.95089262      -0.81882296      -0.26326301       0.31367962      -0.85400512      -1.53087555      -0.61987170
H        1.24646839     -10.57135259       8.69188980      -0.31143942       0.20235914       0.04811218       0.03127128       2.28454142      -0.97182387
C        1.79040603     -11.75408376      10.21288724       1.28791720      -0.70740570       0.84652645      -0.99691745      -1.77601522       0.98086478
H        1.13783446     -12.44557586      10.84017308       0.07970568       0.11306415      -0.15111074       0.61317782       0.92933641      -0.61191134
H        2.73449913     -12.26755672      10.13457272       0.00341498      -0.00677086       0.10638659       0.56019172      -0.30971763      -0.30011066
H        1.98497738     -10.82695512      10.73133341      -0.15780624      -0.12215648       0.11735291      -0.23823740       0.30713023       0.11186879
