112
Properties=species:S:1:pos:R:3:momenta:R:3:forces:R:3 energy=-497.1182287137956 pbc="F F F"
H       -3.93148602       4.49417027       5.91969097      -0.08147394       0.11846899       0.06847103      -0.12799903      -0.15458615      -0.05094823
C       -2.88632493       4.20631599       5.92462546      -1.10196571       0.07570122       0.13944834       2.17454680      -0.90416260      -0.20757686
H       -2.62337405       3.59741365       6.88066259       0.02156415      -0.21917804       0.10243664      -0.53201680       1.02834705      -1.72310373
H       -2.23133415       5.11733663       5.86031828       0.02545679       0.11922791       0.23271381      -0.82959884      -0.55495416       0.69284465
C       -2.47393627       3.38674003       4.61439780      -0.03042849      -0.17097604       0.93698752      -1.86949908      -0.54025676       1.07147894
O       -2.96996723       2.27891234       4.31856239       0.74405175       0.42832019      -0.17075254       0.78265444       0.88495521       0.35519681
N       -1.61304788       4.05335105       3.83358108      -0.37194039       0.32214388      -0.16390229       1.19356832      -0.33327161      -1.08719396
H       -1.22542396       4.90147731       4.25415164      -0.03280492      -0.14259543      -0.17610829       0.04926700      -0.48958721      -0.62023428
C       -0.89539180       3.50543171       2.56699304      -0.00827548      -0.52869750       0.71436099      -0.14585940       0.25694380       1.76299610
H       -1.59407650       2.89211674       1.97580921      -0.21250277      -0.10549098       0.04028158      -0.12647358       0.38766312       0.40421159
C       -0.43564433       4.73703411       1.83479753       0.05042823      -0.24228546       0.81301355      -0.53058404      -0.97607251      -0.25674570
H        0.15964364       5.35771086       2.44036998      -0.02578750       0.00337865      -0.09636516       0.85803008       0.75818601       0.99938936
H        0.17008812       4.46604017       1.00374428      -0.13173515       0.19791423      -0.04046886       0.40860217      -0.21858067      -0.86984029
H       -1.29299003       5.29937916       1.51972199      -0.27513477       0.17655258      -0.08690242      -0.44441051       0.30118371      -0.34398460
C        0.27807480       2.51790317       2.99828225       0.45707348      -0.48221039       0.28976247      -2.22161206       1.14558714      -0.01614306
O        1.44444889       2.69797332       2.71731096       0.12349005       1.01181633       0.38291978       1.27303169       0.07239140      -0.46643167
N       -0.19174103       1.49821441       3.71716436      -0.54747675      -0.18778140       0.41266592       1.14341552      -1.33835569       0.17208574
H       -1.15550310       1.42248856       3.97669692       0.05445169       0.20305423       0.02607035      -0.83280068       0.17017709      -0.14605912
C        0.72326245       0.51763757       4.32764104      -1.16915857       0.37294122      -0.75658556      -0.76736536      -0.37557595      -1.15439992
H        1.65651679       1.03304175       4.35617534       0.11124084       0.03883786      -0.31108187       0.76990879       0.55621050       0.92970290
C        0.07060986       0.01494809       5.58668398      -0.32278531       0.16683720       0.14765675      -0.65288578       0.27168946      -0.34371934
H       -0.18172965       0.84286937       6.26338182      -0.05671354       0.05870003      -0.06628440       0.44782039      -0.29053788       0.07952001
H       -0.89942242      -0.38808414       5.24093728       0.03674350      -0.25853572       0.19819129       0.41420860      -0.24646977       0.39536686
H        0.66883646      -0.77984495       6.01932883       0.06554747      -0.07608834       0.03981618      -0.15226901       0.02186766       0.38589267
C        1.07077404      -0.70768205       3.41531409      -0.42020576      -0.15714695       0.71879644      -1.69152633      -2.08972740       0.89747090
O        0.46946641      -1.81466761       3.47476131       0.73290083      -0.38695632       0.70605881       0.83144078       2.07518377      -0.11152846
N        2.19161483      -0.54297163       2.69375074      -0.98849292       0.40140523       1.13157539      -0.09970330       1.81436479       0.00974962
H        2.46556656       0.47980277       2.60468015       0.16032027      -0.01995394      -0.08079730      -0.12091942      -1.73449046      -0.21355352
C        2.62719730      -1.49902460       1.70363080       0.58268968       0.10302133      -0.58168648       0.79046424       0.43087073      -0.42543338
H        1.87988996      -2.23739663       1.39915941      -0.14450075      -0.03480777       0.09202870      -0.45798644       0.15149153       0.76891087
C        2.92809719      -0.72427972       0.42875787      -0.51432159      -0.32403709      -1.03506234      -0.07282941      -0.13343065      -0.96061560
H        1.96296001      -0.52754631      -0.13832096       0.05105206      -0.20240202       0.04147016       1.23374883       0.27673156       0.86804957
H        3.55367748       0.15878285       0.63814597       0.00822143      -0.03611451      -0.17096765      -0.61651769       0.03754665      -0.12292382
H        3.54401611      -1.33671375      -0.22389390      -0.02767963      -0.01439347       0.02807338      -0.00908630      -0.24211905      -0.10650675
C        3.80402859      -2.37022324       2.18392796      -0.45114296      -0.74600423       0.66980920       0.26330872       0.15845895      -1.21608633
O        4.44737327      -2.98063288       1.31264191       0.54808094      -0.13473627      -0.09341862      -0.06510618      -0.35358338       0.49494933
N        4.04340393      -2.47846371       3.49710013       1.15902349      -0.21686819      -0.56884049      -1.71062721       1.84376832       1.23891461
H        3.43002367      -1.87723187       4.12613660      -0.32131582      -0.15215040      -0.04241941       1.08614697      -1.30187300      -1.01537259
C        4.89636952      -3.50141038       4.06481369       0.50277797      -0.57245164       0.00270961       1.42530054      -0.34194606      -1.76950162
H        5.78914132      -3.54098997       3.35697967      -0.04600110      -0.06702141      -0.12769851      -0.88774818      -0.10177844       0.81309935
C        5.31182008      -3.19931236       5.46671039       0.02472225      -0.72915415       1.05176866       0.88956802       1.66223769      -0.43582371
H        4.50557960      -3.36598458       6.12887566      -0.09992304      -0.12739044      -0.06030051      -1.02334612       0.25649587       0.73896744
H        6.09178524      -3.82837802       5.83918150      -0.05619410       0.30944981      -0.01958865       0.61573662      -0.63665926      -0.16445734
H        5.71145051      -2.15941099       5.48759657       0.04495156       0.28627511      -0.04176298      -0.42784338      -0.56046367       0.25259036
C        4.12455453      -4.81614301       4.02239380       0.05691606       0.87156027       0.02058923      -0.03820140      -0.14227451       0.61179882
O        3.64250333      -5.21139605       5.06980969      -0.24574181       0.19035084      -1.33976892      -0.53648651      -0.85648278       0.41176020
N        4.00033619      -5.45100275       2.83590292       0.62947597      -0.16479965       0.50743648       1.04075117       1.61921550      -1.34770530
H        4.40674692      -4.90846841       2.02081738      -0.26475196      -0.01571232       0.00490088      -0.84982264      -0.80177447       0.90211216
C        3.38985444      -6.73770579       2.65709557       0.43172987      -0.43924862      -0.54598687      -0.72800555      -0.36163380      -0.03728828
H        2.58326872      -6.87265414       3.41868963       0.08876600      -0.10001952      -0.11184957       0.70850603       0.07490285      -0.39179197
C        2.81139700      -6.86944049       1.26474448       0.73350349      -0.02469693      -0.19735536      -0.41450072       1.73855179      -0.39913562
H        3.50308430      -6.50163841       0.48094291      -0.14157335      -0.05848141      -0.16999803      -0.29158359      -0.03897402       0.42627733
H        2.62772964      -7.87703350       1.07284254       0.15256947       0.31933724      -0.10458271      -0.30663679      -1.82050125      -0.35618863
H        1.83475598      -6.35726620       1.17696679       0.03980466       0.06409796      -0.21485353       0.56085366       0.05924083      -0.02053495
C        4.38897898      -7.88890706       2.83244996       0.37008937       0.05661673       0.12794146       0.40544495       0.30115242       1.56891025
O        4.01297073      -9.05543543       3.02233713       0.62943702      -0.01703609       0.23704316       0.18988077       0.20675236      -0.58592492
N        5.66174652      -7.45071840       2.94737870       0.59892497       0.31462881      -0.12814266       0.80021083      -0.56312745      -0.48971218
H        5.75627614      -6.42314715       2.78881880      -0.09692919       0.09571779       0.23079736       0.47835773      -1.38177049       0.38550547
C        6.85750405      -8.41025832       3.12239308      -1.09608011      -0.06072129       0.03366359      -1.43651647       1.53765262       2.23239811
H        6.55153186      -9.29629971       2.64037210      -0.09263106       0.06649233      -0.08103849      -0.00829048      -1.04153433      -1.05170343
C        8.07454502      -7.70059469       2.69267277       0.09804827      -1.14908417      -0.07076612      -0.04410143       1.61537002      -0.20546295
H        8.29026197      -6.87776757       3.42834995       0.18495337       0.03939109      -0.05387526      -0.43575534      -0.42948401      -0.86568300
H        8.98116438      -8.24894103       2.68334363      -0.19912993      -0.39084578       0.02310037       0.65950741      -1.07369517      -0.00238711
H        7.87509964      -7.35437544       1.67144608       0.14977736       0.24684776      -0.03619769       0.41516561       0.39345254       0.17289512
C        6.90278671      -8.73855050       4.66478478       0.34192684       0.88948504       0.00141669      -0.23209381       1.35033300       1.09025948
O        7.60141813      -8.08710146       5.46897012      -0.50337190      -0.08547609      -0.17032799      -0.40217799      -0.92913779      -1.18075438
N        5.94647704      -9.62656606       5.02762439      -0.16543232      -0.29549097      -0.92432253      -1.26397157      -0.30252472      -0.65743609
H        5.24556241      -9.81196981       4.22013892       0.00317372       0.42615577       0.06781290       0.99130898       0.29283564       1.78293961
C        5.46684124      -9.80452636       6.46477518       0.34475614      -0.55551518       0.51975623       1.47278033      -0.11338023      -1.88225404
H        6.13967676      -9.22206716       7.13684145       0.02657327       0.01813635      -0.10206388      -0.45255048      -0.10508038      -0.72903547
C        4.00688164      -9.36608319       6.58894525       0.61552337       0.71760651      -0.39475754       1.31008425      -0.98681003       0.69652185
H        3.88783260      -8.34310087       6.32589526      -0.11552180      -0.07437607      -0.22154586      -0.07748300       0.84844644      -0.42900862
H        3.37937054     -10.01970301       6.01075689      -0.05365049      -0.00056061      -0.13962419      -0.47491473      -0.15854536      -0.24199032
H        3.82776767      -9.47147700       7.64386169       0.06376666       0.20581492      -0.19800043      -0.67412600      -0.10822194       0.51089316
C        5.72683486     -11.26205750       6.89396245       0.33527874      -0.51901000      -0.19681881      -0.31442276      -0.03387519       1.44409353
O        5.65869304     -11.52459812       8.10216702       0.21953445       1.49271358       0.24848583      -0.21444198       0.04049591      -0.04287296
N        6.01716542     -12.21453146       5.99858436       0.95519527      -0.02537370       0.04334951       0.18448453       1.30884968      -1.47381218
H        6.08743571     -11.97997555       5.02684526      -0.20622559       0.17208074       0.19387631       0.02185094       0.38534754      -0.54001701
C        6.07574131     -13.60740085       6.22505150      -0.66785544      -0.02896164      -0.05720780       0.12109597      -0.82168087       0.09299833
H        6.62347225     -13.75701459       7.15404625      -0.04248630      -0.07730729      -0.13253277       0.14158532      -0.20366132       0.11789100
C        4.61722792     -14.15143421       6.43888752      -0.53617276      -0.11564663       0.39724439       1.56226436      -0.95592904      -0.93899166
H        4.19859975     -14.60199096       5.51466969      -0.10754997      -0.12642962       0.01050403       0.16102721       0.38964699       0.51027580
H        4.76249089     -14.91617327       7.19395447       0.03079918       0.10208510      -0.30908725      -0.75086293      -0.21481513       0.19022719
H        4.04591235     -13.31074917       6.77795037       0.27708011       0.01763380      -0.01783736      -0.52232804       0.08875001       0.35958404
C        6.86000690     -14.23286391       5.00026773       0.43735678       0.11287868      -0.83063290      -0.81292401       0.20074499       0.71167589
O        6.69775135     -13.75275190       3.87799791      -0.84772781       0.23132405       0.84761870       0.07846762       0.00744520      -0.01733521
N        7.63960976     -15.30488900       5.25722192      -0.99726719      -0.94747169      -0.23933618       0.01745008       0.59941697      -0.76994866
H        7.68205616     -15.72537084       6.18185851      -0.11878983       0.12617168      -0.12479568       0.14898316      -0.11659501      -0.17428946
C        8.32479752     -16.05440581       4.18939776       0.46319700       0.44344554       0.64221837      -0.66747701      -1.19361124       1.05827042
H        7.55624071     -16.54022131       3.54531316       0.24785114      -0.10219153      -0.08142671       0.18412548       0.34615534       0.18304367
C        9.27616097     -15.32241995       3.29930685       0.11109789      -0.88955088       0.89103209      -0.28617859       0.99742391      -0.68517987
H        9.79129862     -16.03352230       2.67420656       0.61491521       0.03820873      -0.29264940       0.40250186      -0.28469385      -0.23051144
H        8.67900877     -14.72927876       2.60066526      -0.08783032       0.22845067      -0.12368016       0.24337352       0.27471822       0.19937712
H       10.01972406     -14.68770875       3.79198779       0.05779056       0.11265370      -0.00994120      -0.24041290      -0.18211156       0.14522873
C        8.97500128     -17.23660296       4.94629462      -1.02023926      -0.34725739      -0.20601127      -2.10087834       0.76804130       2.81271498
O        8.64358762     -17.43702462       6.13930255      -0.47972067      -0.56875992       1.43521320       0.62879139       0.09646341      -0.60711262
N        9.77922429     -18.03532575       4.30703452      -0.29593965      -0.85296336       0.61211622      -0.10244798       1.79689453      -4.62336751
H        9.86620820     -17.78732386       3.28465974      -0.07476376       0.34669263      -0.13856622       0.54795035      -0.81556873       1.48049547
C       10.54245702     -19.03167077       4.84250538       0.02156946       1.04198537      -0.30885981       2.29443752      -3.07140894       1.85030611
H       10.83927954     -18.71968493       5.86541197       0.05701891       0.02903665      -0.33055313      -0.11399932      -0.12376336      -0.28195191
C        9.74030010     -20.39079047       4.96941108       0.06029926       0.68199421      -0.59900693      -0.31794601       1.85235436      -1.34632611
H        9.64177439     -20.71630017       3.91932661       0.09964124      -0.06216641      -0.01081866      -0.27981114      -0.30019728       0.46047564
H       10.24922661     -21.14048726       5.54055807      -0.14610785      -0.12827835      -0.15577042       0.15350996      -0.33307761       0.44778230
H        8.74990044     -20.08492453       5.36654755      -0.04594538       0.12674784      -0.26768691       0.58767380      -0.61665040      -0.02177081
C       11.87402622     -19.24392022       4.02010915      -0.20251719       0.66251539      -0.12406441      -0.09166937       0.87364856      -0.81516734
O       12.04885301     -18.60292800       2.94923546      -0.26544305      -0.28944282       0.40431901      -0.41833074      -1.13315306       1.69577808
N       12.80787876     -20.14195588       4.50453983      -0.63763544       0.08524657      -0.72145778      -0.94148497       1.56634036      -0.97257463
H       12.66873143     -20.49916531       5.42844271       0.16129895      -0.15978229      -0.13966321       0.21476865      -0.20126366       0.30267266
C       14.06700841     -20.22979055       3.72942676       1.58567743       0.55555899      -1.21050497      -1.72545697      -0.29824929       0.97433961
H       14.45921532     -21.21667502       3.87878616       0.02764156      -0.00267374      -0.26738907       0.20923204      -0.56671851      -0.55112152
H       13.68606095     -19.92738004       2.76696030       0.21637145      -0.26980500       0.42048283       0.70805149      -0.44272647      -0.77275147
H       14.78459191     -19.52179113       4.06017436       0.14887346      -0.24314426      -0.11565439       0.68966023       0.85019023       0.40639369
