112
Properties=species:S:1:pos:R:3:momenta:R:3:forces:R:3 energy=-498.3606959404618 pbc="F F F"
H        8.21513504      -0.34050192      -3.69351178       0.14412224      -0.28411864      -0.01309624       0.72495161       0.80766982       0.06590539
C        7.52834032      -1.14323051      -3.58095740      -0.00968961       0.42506206       1.07130824      -0.17802419      -1.20214292      -1.45191485
H        8.01845062      -2.10350980      -3.86630237      -0.22502207       0.07997819       0.05343642      -0.40965563       0.80820215       0.01427489
H        6.69667714      -0.92398798      -4.27743866       0.06432657       0.14611617      -0.07610087       0.22891469      -0.21575769       0.23556570
C        7.03290412      -1.31837363      -2.22657603       0.03169749       0.65210434      -0.46026321      -1.64136198       0.20527083       3.33398544
O        7.03844677      -2.42449220      -1.63955454       0.12726004       0.80155359       0.18007405       0.21487199       1.54550900      -0.81388884
N        6.41169992      -0.19263725      -1.54834596      -0.09264913       0.71207199       0.11386705       1.72393777       0.36990981      -1.31048491
H        6.60573664       0.76661223      -1.96892451      -0.04883868       0.09347571      -0.04358517      -0.31817194      -1.81988172       0.62881652
C        6.32332100      -0.17609128      -0.06968471       0.19720495      -1.28648796       0.39454953      -0.94408243      -0.33407155       0.13661311
H        7.22958322      -0.52616838       0.42547627       0.37231053      -0.02597751      -0.04229223       0.14497125      -0.46715672      -0.30455004
C        6.08253779       1.23432083       0.43777726       0.03052222      -0.55654631       0.01855403       1.28612060       0.42692726       0.00659698
H        5.19635494       1.60861051       0.05844474       0.02066029      -0.11944082       0.06420750      -2.10413916       0.70257664      -1.02592039
H        5.96282476       1.33853975       1.50800727       0.01511115      -0.11082036       0.01823975       0.33044018      -0.52199644       0.31794172
H        6.84173366       1.96378900       0.10939409       0.05486973      -0.13480591      -0.11180847       0.16410750      -0.47019293       0.13857459
C        5.14734241      -1.07767540       0.46304527       0.21442750       0.30264173       0.46277629       0.59586088       0.77829139      -0.72514503
O        5.10628136      -1.32436014       1.66121331       0.83681304       0.05200525       0.19461662      -0.09799552      -0.45010447       0.15788006
N        4.20862306      -1.46502737      -0.45085941      -0.23738612       0.07448077       0.57860643       1.35739369       0.59255385      -1.08702755
H        4.47133213      -1.26231639      -1.44628097      -0.15194079      -0.23528470      -0.11132246      -0.51413190      -0.34900760       1.36078913
C        3.29370004      -2.53671956      -0.12298623      -0.36505670       0.42054565      -0.10967169       0.62638458       0.74977820       0.86020759
H        2.86859112      -2.24585595       0.87682837      -0.34654060      -0.24791600      -0.15213161       0.22078898      -0.51063133      -0.78352579
C        2.21350631      -2.65749535      -1.13907720       0.56008244       0.11501583       0.71132047      -2.23627979       1.96018613      -0.78499196
H        2.49871317      -2.72673016      -2.19307373      -0.20674052       0.06273779      -0.19228937       0.50224383      -0.31841995       0.20731655
H        1.49560230      -3.42599734      -0.91610584      -0.19034562      -0.12660991      -0.27371104       0.09301689      -0.72755716       0.17802095
H        1.54563333      -1.72923936      -1.12640953      -0.04482764       0.00577604      -0.02292924       1.00331819      -0.82108792       0.13819812
C        3.97858229      -3.87528124       0.10193218       0.09853553      -1.17289064      -0.60568165       0.18432152      -0.36493641      -0.36788928
O        3.27130029      -4.73035443       0.62567270      -0.66516252      -0.01266018       0.11882495      -0.24297478      -0.98340203       0.72617511
N        5.24863581      -4.13682722      -0.29754889       0.19253710      -0.45858575      -0.47436427      -0.54207610       2.30961409      -1.27107075
H        5.82007874      -3.38287587      -0.73390947      -0.06476843      -0.15605613       0.18578387      -0.57154703      -0.54209656       0.24319738
C        5.89960214      -5.36607273      -0.03562683       1.07481091       0.32664798      -0.38121625       0.88405019      -1.04869599      -0.70207791
H        5.40553498      -6.27206270      -0.47753892      -0.23167609       0.19980880       0.02750878      -0.27542956       0.86489025       0.86897076
C        7.30025179      -5.36706545      -0.74087695       0.18534160       0.19999602      -0.31532744      -0.82584138       0.58532944      -0.51407639
H        7.85123699      -4.54252173      -0.27703021      -0.10508490      -0.31924613       0.09415970       0.27482003       0.02600240      -0.65264053
H        7.87605439      -6.28433274      -0.59907783      -0.20034563       0.09219220      -0.01965235      -0.41902582      -0.02705057       0.16327638
H        7.09408469      -5.22059281      -1.85274626       0.08167666       0.03367777      -0.36627344       0.58462774       0.06769770       1.43463989
C        6.08173911      -5.51027299       1.44586689      -0.03776542       1.07681462      -0.18704259       1.37786181      -1.98285143       0.29852442
O        6.30535196      -6.65666600       1.86288775      -0.11205783       0.73058012       0.64993426      -0.51745413      -0.01357980       0.52631590
N        6.17874000      -4.42843523       2.24240039      -0.31606665      -0.11753768       0.27848885       0.05067891       0.79421774      -0.60094106
H        6.27928306      -3.53153529       1.76214550       0.00732189       0.10619640       0.06806841      -0.44000178      -0.13530901       0.61200754
C        6.22073891      -4.52050507       3.71154307       0.12807735       0.63479201       0.38530934       1.89568840      -1.65332338      -1.48286898
H        7.14045294      -5.09491691       4.04550902      -0.35757044      -0.09124064      -0.00504937      -1.02954471       0.04849452      -0.59345742
C        6.38386533      -3.18849608       4.30075219       0.63826615      -0.25443029      -0.15110411      -0.62563826       1.04289666       1.25371020
H        6.49110071      -3.25545284       5.38200544       0.00141578       0.27611421       0.04595863      -0.35136284      -0.21151742       0.16877947
H        7.30999761      -2.73646741       4.00910360      -0.05081816       0.08482735      -0.00113014       0.42944814       0.39220206      -0.66635042
H        5.52580884      -2.57206471       4.06740664      -0.03714300       0.19144146       0.08013463      -0.01879576       0.52133858      -0.06522718
C        5.04192803      -5.30764612       4.16287184      -0.48749267      -0.59545506       0.01572959      -1.55951485      -0.91161158       0.36398957
O        5.07807257      -5.90960235       5.24894236      -0.32386158      -0.35218175      -0.05882048       0.30360462       0.54800365       0.09388131
N        3.90196515      -5.40103447       3.39661107       1.38943071      -0.67980199       0.21598689       0.80585909       1.37103308      -0.39052662
H        3.81806472      -5.05738760       2.40773559       0.26972159       0.13271766       0.01548272       0.05822112      -0.25222627       1.13797018
C        2.78397646      -6.07663922       4.00716003       0.66024579      -0.02739001       0.43657738       0.22616051      -1.46217961      -1.58710638
H        2.76526206      -5.82579892       5.04598625       0.04786819      -0.00956867      -0.05196351       0.11151690      -0.04671404       0.80171275
C        1.45105132      -5.71528216       3.40218306      -0.36429822       0.63673764      -0.28429925      -0.97053109       1.35946329      -0.47963433
H        1.34585492      -4.60299570       3.49992499       0.07949082      -0.26775901       0.19358209      -0.01695055      -0.77037243      -0.21975301
H        1.32011027      -5.96526547       2.32801652      -0.19473457       0.21012900      -0.01090474       0.33724814       0.03440605       0.61672409
H        0.60243842      -6.14153137       3.96354074      -0.12510141      -0.04733197       0.00900868       0.54839517      -0.09764341      -0.13677251
C        3.01580413      -7.60198939       3.91458828       0.33004644       1.24760399       0.07076795       1.58848729      -1.25585393      -0.20856124
O        2.31535887      -8.37289408       4.55860619      -0.51219239       0.23059162       0.12170786      -1.02138750      -0.45575364       0.63000339
N        4.10155487      -8.10853346       3.21407130      -0.71758394      -0.48744366       0.46439701      -0.97802823       0.99757660      -0.14763472
H        4.67651707      -7.41825032       2.77737903      -0.06962742       0.08147077      -0.06782205       0.70001263       0.18526376      -0.48000077
C        4.58489880      -9.51112494       3.27842343       0.62024455       1.22115454      -0.74814556      -1.10636178       1.23515546       1.79404172
H        3.66544541     -10.10277788       3.16757046      -0.03492135       0.08315520       0.18687641       0.47075401      -0.36825681      -0.49303675
C        5.75657087      -9.77845804       2.34267500       0.07021703       0.17330085      -0.91185589       1.25121106      -0.64522774       1.04847139
H        6.71396696      -9.29880332       2.73222774      -0.09038763      -0.09048884      -0.04730381      -1.30067669      -0.35516787      -0.44565183
H        5.98837298     -10.87531834       2.26462737      -0.11212526      -0.08697483       0.04869766      -0.49423789       0.94240167       0.16133594
H        5.55224402      -9.38371822       1.36920391       0.00099405      -0.04318074      -0.17015334      -0.07803427       0.20843300      -0.64221838
C        4.94955740      -9.75459618       4.78105644      -0.37032007      -0.10735295       0.12214344       0.20007400      -0.74409023      -2.07949877
O        5.00531448     -10.90833480       5.21312958      -0.25833275      -0.47712672       0.34931019       0.03038077      -0.42256137       0.11422443
N        5.26733381      -8.68905092       5.49876849       0.80164122       0.02465527      -0.57614982       0.18728428      -0.18735136       2.89949402
H        4.99504746      -7.73135737       5.32003843      -0.08006501       0.23908012      -0.42161097       0.14903443       0.22517016      -0.68913052
C        5.45802843      -8.93084616       6.95711997       0.31456903      -1.38021460       0.39176237       0.79404778      -1.50617317      -0.46919288
H        6.19292461      -9.79766122       7.12115399      -0.14711932      -0.02979000      -0.07086818      -0.16468681       1.60069213      -0.63006892
C        5.81776598      -7.65439878       7.68748018       0.17048139       0.97132137       1.25818164       0.58233115      -1.19360046       1.71830798
H        6.79652875      -7.25468138       7.48627763      -0.28127116       0.26419840       0.14213032       0.19354463       0.32987987      -1.01400427
H        5.03022179      -6.93367812       7.62053253       0.08946793       0.13277590       0.11263509      -0.26229057       0.62493821      -0.13775989
H        5.97842723      -7.91645329       8.75401345      -0.04612084       0.04234075      -0.06290324      -0.65107758      -0.02464271      -0.32285549
C        4.30550320      -9.68210140       7.64450882      -0.12567567      -0.27116009       0.50527659       0.20320542       0.00879171      -0.16119495
O        4.58495350     -10.25185627       8.71819994      -0.05540077      -0.37156386      -0.59759228      -0.65443975       0.11466441      -0.06690883
N        3.12482431      -9.76237945       7.02815341       1.64012240       0.59872168      -0.50386458      -0.87047850      -0.28569407       0.57889743
H        2.98070301      -9.35846262       6.11273172      -0.17635472      -0.28098379      -0.17940733       0.02866602       0.32408035      -0.18881666
C        1.92806944     -10.38318142       7.66799530      -0.44142155       0.65678694       0.10432616       1.41834876       0.74347746      -0.29915912
H        2.06878663     -10.11193329       8.70505615       0.18887957       0.12290730      -0.28531487      -0.40214006       0.04520825       0.55158781
C        0.65374246      -9.77022047       7.07612323       0.08670278       0.38042340       0.01708870      -0.10892328      -1.35274777       0.32385699
H        0.67255876      -8.70363707       7.09574167       0.15517815       0.26209500      -0.08392100       0.36977545       0.78558727      -0.21714138
H        0.46017585     -10.15074336       6.06643307      -0.07392587       0.40391035      -0.16393917       0.09901340       0.23561397       0.12989989
H       -0.17954901     -10.05090955       7.71253318      -0.18329566       0.18906721       0.12249392      -0.17263914      -0.31351953       0.01577775
C        1.96062392     -11.91401382       7.67515690      -0.05897661      -0.05943115       0.09082677      -0.57825623      -0.01790711      -1.86336729
O        1.06824913     -12.50630316       8.27883166      -0.47589529      -0.07219717       0.33982593       0.62772808      -0.17600585       0.34473490
N        2.86492438     -12.52585448       6.82482935      -0.13378712      -0.91937509       0.28659302      -0.23255802       2.94012692      -0.05072483
H        3.45350604     -11.95899438       6.16126361      -0.10678564      -0.25660861      -0.19005111      -0.71486495      -0.42062495       1.12650809
C        3.04131250     -13.91422744       6.79137702      -0.28242247      -0.70320632      -0.05130732      -1.27849175      -0.78472526      -0.84855694
H        2.31462660     -14.28552536       7.58158948       0.05875872       0.06242205      -0.00352250       0.78812832      -0.09479379      -0.90484902
C        2.70265203     -14.50306533       5.38834917       0.28140163      -0.45721364      -0.53804253      -1.26386428      -1.54967499       1.83560381
H        1.62399737     -14.58154128       5.25085680       0.11066525      -0.02654305      -0.18921727      -0.17874258       0.47598917       0.12742814
H        3.09987717     -14.09358961       4.50605441       0.13715645      -0.39418831       0.16090037       0.94906497       1.17715890      -0.74423640
H        2.99664049     -15.54133743       5.40296932      -0.30247272       0.17835672      -0.06360341       0.43649564      -0.42983172       0.03674103
C        4.43440739     -14.26350203       7.19963306       0.13430728      -0.63079671       0.11874748       0.59069323      -0.46827931       1.05880338
O        4.92190500     -15.36023041       7.00759143       0.21271098      -0.06807412       0.67693855       0.18290724      -1.53887880      -0.85289186
N        5.10368090     -13.37002177       7.93609930       0.17668207      -0.85566383      -0.87903148       2.23512921       0.90270459       1.66047549
H        4.77277802     -12.43258154       8.08137500       0.13619071      -0.08518429      -0.03324418      -0.28126150       0.20065869      -0.05695869
C        6.52420308     -13.67828548       8.40215318      -1.23138037      -0.21705320      -0.05734913      -0.46230693      -2.40982482      -0.55775282
H        6.58928593     -14.82496141       8.46859763      -0.09151009      -0.05548843       0.10890682      -0.49189053       1.62290886       0.51759374
C        7.47665080     -13.36283230       7.29309027      -0.10814118       0.91991373      -0.49092215       0.64219662       0.14695761      -1.65896476
H        8.52101016     -13.52443998       7.58606757      -0.18974526       0.08090627       0.03599258      -0.19615131      -0.19996371      -0.04816192
H        7.25729680     -13.86361521       6.30921477       0.12239454      -0.05353266      -0.14534598       0.10650620      -0.06731679       1.18739408
H        7.37749122     -12.32848827       7.04150987      -0.04006798       0.33990146       0.03695962       0.09898975       1.08080677      -0.11415649
C        7.08014739     -13.05340495       9.71104063      -0.51274991      -0.57036634      -0.32551398      -1.44981658      -0.25094760       1.26827447
O        7.87337008     -13.61342778      10.48587047      -0.62194158       0.67975250      -0.15461460      -0.19343323       0.04168274      -1.47907389
N        6.50279850     -11.88352079      10.08418219       0.01085990      -0.47727605       0.42691858       1.02474904       0.30976190       0.87432506
H        5.88040727     -11.33288236       9.52243289      -0.03288494      -0.14842374       0.23044881      -0.35735682       0.02065196      -0.58204501
C        6.94841652     -11.18420899      11.28411809       0.03866707      -1.10339395      -0.44724536      -0.93563957       1.09312421       1.04874296
H        7.82599318     -10.54782368      11.19224795       0.05233021       0.18437304      -0.32772202       0.75612560      -0.56650578      -0.46872684
H        6.21689345     -10.37914617      11.50354481       0.10182652       0.04376776       0.10606556      -0.22228260      -0.67455540      -0.13603251
H        7.03983798     -11.77744605      12.22320211      -0.00875656      -0.22075176      -0.00939829      -0.04185977      -0.05993633      -1.06590883
