112
Properties=species:S:1:pos:R:3:momenta:R:3:forces:R:3 energy=-496.7716998388194 pbc="F F F"
H       -9.92376244     -15.61343442       1.89590191       0.13500524       0.08886372      -0.29877397      -1.09283148       0.83453821      -1.25271251
C       -9.42095740     -15.99055302       2.72982875      -0.11928139       0.82242262       0.38256627       0.38012601      -1.70848741       0.69620756
H       -9.71914216     -17.05686834       2.79718974       0.19729471      -0.16041259      -0.05185343      -0.02555856       0.34925194       0.07219293
H       -9.74601586     -15.52452068       3.66121484       0.33757431      -0.00286513      -0.26074053       0.49857877       0.15843047      -0.19374466
C       -7.93127673     -16.02280951       2.45742936      -0.21491521      -0.30733306       0.11314603      -2.04233568       0.44298763       2.95905609
O       -7.15109737     -15.89776089       3.40894228      -0.06793685       0.55113140      -0.90258303       0.78598602       0.17105802      -0.60700087
N       -7.60148122     -16.22991194       1.20746127      -0.04594919      -0.15765744      -0.52730473       1.18072544      -0.44558170      -1.53368984
H       -8.25130154     -16.37914705       0.45998596       0.17877835       0.19009276       0.13492825      -0.62108703       0.15605893       0.12482621
C       -6.22103333     -16.31000734       0.78403293       0.20338189       0.29926832       0.11049807      -0.16930062      -0.10373955      -0.82603625
H       -5.63254898     -16.70507075       1.61430254       0.06105078      -0.19782825       0.29522496       0.01309379       0.20804774       0.07850890
C       -6.07233747     -17.21461866      -0.42513099      -0.97818851       0.84159048       0.53099477      -0.01547697      -0.49736277       0.42875231
H       -6.81138331     -16.99544502      -1.25156662       0.43113547       0.00790172      -0.06099102       1.35631496       0.25322398       0.56220214
H       -4.96978888     -17.11618990      -0.61233250      -0.52102815      -0.20999872       0.00888238      -1.22771528      -0.48514941      -0.88813275
H       -6.33604188     -18.22946695      -0.08834922       0.21139712       0.13537314       0.09529438       0.41231935       0.07057647      -0.17376853
C       -5.75734807     -14.91716618       0.39462698       0.41390132       0.42538550      -1.29491502       1.06074863       2.37957862       1.57469616
O       -5.46800930     -14.54631193      -0.73459199      -0.00212086      -0.15483756      -0.18575631      -0.00680113      -0.32923977      -0.42951735
N       -5.62430314     -14.06470935       1.49932749      -0.44060145       0.16022891      -0.42807885      -0.83350151      -1.09297416      -0.47214461
H       -6.11710778     -14.45689245       2.32972326      -0.03866656      -0.02102699       0.20122468       0.85800736       0.68957039      -0.31085637
C       -5.36250108     -12.58492125       1.44341274      -0.10782952      -0.22882695       0.44445414       0.73736912      -1.46793126      -1.18144702
H       -5.54377966     -12.26995671       0.37210080      -0.21108381      -0.27820639      -0.16549191       0.35641176      -0.31393058       1.01734362
C       -6.35156870     -11.97301426       2.38526591       0.15423744       0.11711461      -0.38303657      -1.14129872      -1.10907918       1.06778110
H       -6.26863647     -12.47651459       3.38636457       0.07451653      -0.01702070       0.31416556       0.14944414       0.56603700      -0.69889701
H       -6.23643615     -10.91382228       2.53862631      -0.13790104       0.02850469      -0.33111440      -0.03327251       0.42141652      -0.11469440
H       -7.39826701     -12.25562777       2.03682735      -0.38575903       0.06294267      -0.11439678       1.20137999       0.70148962       0.21544148
C       -3.81472634     -12.43352052       1.80697676      -0.13123991      -0.04065949      -0.22816063       1.18656923       0.01126121       0.21212498
O       -3.38034407     -12.09220658       2.91481841      -0.02383835      -0.23958835       0.37449989      -0.95074364       0.01897692      -0.45627966
N       -2.90534197     -12.80419628       0.82650746      -0.87089153      -0.18133052      -0.12258764      -1.32294801       0.55187530      -0.01438421
H       -3.29934189     -13.23312118      -0.00163486       0.02087767       0.33836780       0.07829388       0.01585580       0.13410098      -0.08499671
C       -1.46591149     -13.08271296       1.05697932      -0.39409509       0.23556689       0.54802854      -1.84502868       0.00765278      -0.47110171
H       -1.39051423     -13.24659015       2.10467877       0.29193427       0.16304726       0.18524364      -0.03794949      -0.67108375       1.03956135
C       -1.17602540     -14.34925162       0.26668711      -0.07579735      -0.31456786       0.20777073      -0.04382130      -1.08124733       2.36435063
H       -1.12121907     -14.22601462      -0.78709639      -0.14089164       0.17630521       0.06387826      -0.23368222       0.06084313      -0.85996453
H       -0.21936174     -14.62371705       0.64839062      -0.01701831       0.12565850       0.31646228       1.26453691      -0.44635256      -0.27913746
H       -1.80274173     -15.24923219       0.64878779       0.02012711       0.07220827       0.18552694       0.46270999       1.72724488      -0.98425750
C       -0.54114149     -11.86121812       0.84554200       0.51822613       0.06417493       0.20031930      -1.08266588      -1.45591985      -0.77995792
O       -0.04039916     -11.59918885      -0.24077738       0.17959517      -0.81676103       0.40844235       0.33209607       0.29281503      -0.33761628
N       -0.35620582     -11.17830989       1.96916235       0.40307758       0.84912285       0.12467881      -0.80088570      -0.02560369       2.13633093
H       -0.84087515     -11.41152380       2.87484746      -0.05212869       0.10211818      -0.28028246       0.56649094       0.22525573      -1.40559880
C        0.45762192     -10.01002416       1.97628227       1.31036922      -0.07439116       1.38325024      -0.84659124       0.81532615       0.09976358
H        1.18901823     -10.21379028       1.23279239       0.06818075       0.17884625       0.11681649       1.04049165       0.16918951      -0.66309965
C       -0.40710280      -8.75254551       1.52735259      -0.06382293       0.08094117      -0.41890361       0.30699720      -4.05635105      -0.79799215
H        0.17759355      -7.92150984       1.42508364       0.05172570      -0.34579901      -0.04136665       1.37428753       2.31878492      -0.31934019
H       -0.87934740      -9.07983247       0.58079272      -0.17092075       0.01501501      -0.12536484       0.24913046       0.50627440       0.40763198
H       -1.11886696      -8.68915417       2.27815944      -0.03109365      -0.16956289      -0.23072546      -1.60628324       0.67939354       1.30184488
C        1.06821904      -9.85531345       3.36844049      -0.23704099       0.32608395       0.61471019       0.05589093       0.11002348      -0.81214271
O        0.50357039     -10.28077709       4.37826076      -1.03687685      -0.48964485       0.22047556       0.32693806       0.29856545      -0.09561717
N        2.26167318      -9.20196603       3.32036677      -0.23407844       0.26059002      -0.76462408      -1.64377754      -0.45885020       0.31096930
H        2.50037504      -8.84356436       2.41046502      -0.17124611       0.03322701       0.07937063       0.68625120       0.37140084       0.20673981
C        2.87588685      -8.77827355       4.55625316       0.67062001      -1.02404754       0.18772452      -1.51323666       0.66415007      -0.72556954
H        2.07361428      -8.41178707       5.23971404      -0.17152759       0.07648774      -0.23115989       0.22638917       0.27844143      -0.50580021
C        3.44466217      -9.94187747       5.27252628       0.37201997       0.40374892       0.15391929       2.23991143      -1.04866438      -1.60588933
H        4.19718471     -10.45016374       4.57733192       0.03560210       0.36025256      -0.16713834      -0.96629203       0.40757292       0.85496141
H        4.04068391      -9.45621686       6.00079327      -0.20700448       0.13496876      -0.33068851       0.54138584      -0.37579940       1.64546705
H        2.69629100     -10.65671506       5.59204225      -0.19350503       0.10770861      -0.00567984      -0.00345348       0.15381980       0.29246912
C        3.87035583      -7.67714448       4.22914285       0.07917620       0.25889999      -1.48128207       0.80490268      -0.26690286      -0.31149302
O        4.34151940      -7.54058882       3.08779776      -0.77884436       0.00026664       0.14952716      -0.47198564       0.07398976       0.84513859
N        4.26910275      -6.95837502       5.31002928      -0.78926975       0.35470950       0.31268010       0.50147956       0.21434821      -1.02707229
H        3.76071252      -7.07516472       6.15271291      -0.00652521      -0.00993970      -0.21061387      -0.26634106      -0.08228914       0.81370379
C        5.22140075      -5.85000606       5.18752653      -0.18468590       0.23240776       0.00350804      -0.33089093      -1.15014307      -0.93466496
H        5.28923987      -5.76855665       4.09187104      -0.01612098      -0.15754529       0.02808475       0.17256900       0.45463357       0.16846699
C        4.59857828      -4.62171894       5.86926333      -0.00266078       0.46801140       0.36637602       0.94229262      -1.20935547       1.08422301
H        4.32126580      -4.98727367       6.86903773      -0.31772936       0.06082386      -0.05604927      -0.00345728       0.29135979       0.00537523
H        5.35394967      -3.86833254       6.03627126      -0.32022568       0.13533842      -0.06171934       0.00212345       0.53843215      -0.20419067
H        3.69377800      -4.26130496       5.40718457      -0.26136480       0.23670881       0.17529958      -0.04071014       0.14907068      -0.49376930
C        6.64671174      -6.25184648       5.71767325       1.31108125      -0.79981221       0.52689731      -1.10935067       0.60181534       2.09026103
O        6.82113594      -6.83266322       6.81751237      -0.59378310      -0.13911647       0.68214362      -0.62351408       0.34722187      -1.53281418
N        7.66018781      -5.67879365       5.06490530      -0.47997817       0.47309612       0.12987850      -0.11713789       0.26546078       2.00668859
H        7.56550086      -5.15074631       4.24515837       0.15028375      -0.14090678       0.05401025      -0.20135494       0.86249859      -1.29361636
C        8.94012808      -5.56139892       5.77245264      -0.50646417      -0.02397732       0.31402755      -0.28113306      -1.37727158      -0.95341840
H        8.78500266      -5.51104931       6.87394789      -0.16767897       0.25599828       0.12342298       0.01249317      -0.12040107      -0.73724350
C        9.60605298      -6.87322459       5.31017529       0.29405568       0.15462375      -0.22054471      -0.79526946      -0.06331368       1.80052463
H        9.66480162      -6.89251494       4.26457871      -0.23652979       0.21062770       0.15911437      -0.18732340       0.10954092      -1.63437033
H       10.59788292      -6.88255669       5.65086833       0.05646490      -0.02282400       0.19957531       1.48174374      -0.65320157       0.86361673
H        8.95758499      -7.70599495       5.66359578       0.07444209       0.32548937       0.22381806       0.81539681       0.45786979      -0.07584601
C        9.68571456      -4.40169640       5.18109064       0.42083339       0.25700641      -0.12938868       1.59721134       1.60962028       0.47008903
O        9.40254368      -3.98947473       4.06575104      -0.21342803      -0.73812901       0.36473503       0.10465597       0.27001540      -0.40541437
N       10.74393322      -3.88775202       5.96845257       1.78938982      -0.10935351      -0.82197151      -2.78063176      -2.33993282      -0.14357849
H       10.60596194      -4.25196172       6.90091477      -0.11493093       0.16434227      -0.04964245       0.85049471       0.44735541       0.43662359
C       11.50174388      -2.71313499       5.72689384       0.07131012      -0.55118822       0.78864064      -0.14996693       0.52386820      -0.44008441
H       11.82639522      -2.80094945       4.69124731      -0.03032529      -0.23352198       0.18585816      -0.04985616       0.38159402      -0.28188407
C       10.65453171      -1.43300839       5.99216269      -0.35778169      -0.21105902      -0.50730084      -0.20037324      -0.59564856       1.08264155
H        9.65719581      -1.64074600       5.61561487       0.03950149      -0.16627764      -0.23266527      -0.05612615       0.31941235      -0.38267500
H       10.53668070      -1.36442341       7.08761047       0.14525381       0.00157813      -0.02709697       0.03548257      -0.01311783      -0.20248185
H       11.02630290      -0.45412182       5.68507522      -0.07910818      -0.10975313       0.21673429       0.20576699      -0.32536338      -0.43173649
C       12.74773499      -2.70832577       6.60035172      -0.48107652      -0.41101587      -0.46081749      -0.83880017       0.39553376      -0.16968655
O       12.87425630      -3.34375998       7.63646458      -1.19629590      -0.84659945      -0.29798888       0.02677172      -0.58908608       0.26854189
N       13.63829864      -1.83015259       6.14962158       0.39195213       1.68586583      -0.14445460       1.65823915       0.20579781       0.90565368
H       13.50289286      -1.18744645       5.41130474      -0.11929217      -0.09404319      -0.13254936      -0.59635432       0.40379922      -1.14107867
C       14.95262164      -1.65162305       6.74208072       0.64977124      -0.70079678      -0.91113501      -0.19854731       0.35962659       0.55910321
H       14.91876635      -1.61692820       7.85055769       0.12777512       0.22468748      -0.40882023      -0.43312329       0.13976695      -0.43102788
C       15.84807405      -2.83805280       6.39143438       0.60589431      -0.37611608       0.04536653       0.40482071       0.81155766       0.29986279
H       16.81751607      -2.74336298       6.87664965      -0.03071493      -0.17650502      -0.02551751       0.17320699       0.05519622      -0.03268956
H       15.40269932      -3.75055536       6.73937684      -0.07384469       0.05449415       0.09540405      -0.38909260      -0.38855905       0.15848255
H       15.97062370      -2.86340522       5.33236109       0.09590148      -0.01569998       0.29897803       0.23849542      -0.20875302      -0.86253844
C       15.45978064      -0.27981797       6.22725746      -0.05831025       0.64020881       0.82789535       1.40730133       0.47495637      -0.19734771
O       15.21585370       0.22024776       5.11286840      -0.55362533      -0.82448375      -0.36042410      -0.54387985      -0.88776690       0.76421425
N       16.35222289       0.32264335       7.06506048       0.15206343       0.33033323      -0.43392929      -2.21255324      -1.21785066      -0.89560973
H       16.62289526      -0.14745160       7.88860860       0.29412437      -0.03877058      -0.24254837       0.36840523      -0.42585786       1.22870733
C       17.15049157       1.42187986       6.68172079      -0.17138684       0.22579419       0.74376051       1.08412054      -0.90468352      -0.70604951
H       17.44117069       1.16307294       5.64266320       0.11897026      -0.12712219      -0.14338518       0.23624251       0.61955303       0.16593628
C       16.43038051       2.72640296       6.72491348       1.02927623      -0.23335515       0.19038236      -1.38648089       1.20656987       0.31719042
H       15.76603101       2.79611101       7.60584533      -0.06438766      -0.14093581       0.27344576       0.26304505      -0.36361460      -0.16603246
H       17.06940932       3.61004467       6.84400117      -0.05653288      -0.20505600      -0.08840077       0.10468345      -0.23732633      -0.58965890
H       15.75377791       2.78137359       5.84935750      -0.13363127       0.12797947      -0.32812300       0.52016110       0.29133290       0.35614631
C       18.36284432       1.32761323       7.60184354       1.17630822       0.81455171      -0.40422386       0.62770999       1.04581171      -0.13901297
O       18.32185924       0.69141052       8.65571019       0.53133381      -0.33471322       0.08898040       0.31504352       0.13219483      -0.22553123
N       19.44114467       2.07300600       7.20152618      -0.48187157      -0.32390547      -0.23258529       0.33554017      -1.75851673       3.10483626
H       19.48104865       2.43141861       6.31094540      -0.17255381      -0.25135477       0.23355204      -0.02964702       0.87814639      -2.27338291
C       20.67876113       2.02802753       8.02817820       0.39676094      -1.30653271       0.53632472      -0.18865448      -1.04395143      -0.77821758
H       20.49175863       2.66683066       8.88267217      -0.05626073       0.03592243       0.04136774       0.18883299      -0.41039281       0.60298775
H       20.93339185       0.92751054       8.26100138       0.02101395      -0.28902968      -0.03197745      -0.43898157       1.84956338       0.03578291
H       21.51938984       2.47785243       7.48407102       0.23793212      -0.02321970      -0.06370637      -0.31759412      -0.18609979      -0.12841618
