112
Properties=species:S:1:pos:R:3:momenta:R:3:forces:R:3 energy=-497.04947859249353 pbc="F F F"
H       -6.93015095       2.62060166      -0.08265701       0.12591419       0.27375276       0.25020145       0.36536413       0.03202192      -0.14456769
C       -7.24302503       2.23509401       0.88309797       0.18160021       0.71777362      -1.08880864      -1.82484095       0.88684696       0.08381473
H       -8.41322498       2.28168554       0.79362448      -0.11190096       0.14647915       0.21210316       2.10353553      -0.30492780       0.70143229
H       -6.85270376       2.88375613       1.70155272       0.01491943      -0.13857354       0.25291840      -0.72424982      -0.14604760      -0.68109800
C       -6.67258894       0.89144870       1.21923108       0.16191834      -0.98438108      -0.14808873       0.21121448       0.97383929      -1.39466761
O       -6.54994154       0.54247801       2.36450673      -0.31357995      -0.73981697      -0.88725095      -0.10068944      -1.09225817       2.69320389
N       -6.15069147       0.18892205       0.20734350       0.22844526      -0.38388724      -0.26834810       0.43408824      -0.28667776      -0.68818519
H       -6.09717734       0.63862125      -0.69322289       0.18951110      -0.08305623       0.42905555      -0.11500682      -0.01036532      -0.01136529
C       -5.48499978      -1.11218692       0.25719340       0.55085002      -0.35526896      -0.66533551      -0.25653612      -0.50560943      -1.64788434
H       -6.05665516      -1.84143812       0.86566928      -0.07440564      -0.16991415       0.16400083      -0.13749663       0.50866767      -0.34380151
C       -5.40383648      -1.51501473      -1.23709850      -0.35250902       0.39231945       0.71109364       1.81847014       1.25115270       0.33461614
H       -5.10783695      -2.53267118      -1.35195236       0.19414355       0.08921641      -0.23303297      -0.21522324      -0.90093639      -0.14053987
H       -6.31023451      -1.23810657      -1.75542477      -0.16876020       0.20274550       0.04509167      -0.25594504      -0.31448717      -0.20139350
H       -4.50805010      -0.95551192      -1.68154189      -0.03857531       0.05736931       0.04423616      -1.29856194      -0.46105757       0.48452900
C       -4.07736120      -1.14733062       0.85731389      -0.43262187       0.52354411      -0.75636915       0.40752584       0.52382056      -0.12063040
O       -3.01670147      -1.37951901       0.22966050      -0.53480405      -0.85593622      -1.01699624      -1.39938910      -0.16036970       0.55685266
N       -4.12557547      -0.93351746       2.18413839       0.17340740       0.34756881      -0.65423619       1.10196412      -0.49296528      -0.16380925
H       -4.93157180      -0.45882894       2.57938232      -0.05968472       0.05816257       0.11314121      -0.40026365      -0.16024545       0.09165315
C       -2.88380367      -0.99744865       2.91227615       0.07890735       0.43885640      -0.03564805       0.70516671       0.29345352       1.44922104
H       -2.09086936      -0.61256410       2.22632885       0.19743815      -0.14013549       0.22057317      -0.35170905      -0.35122244       0.46396711
C       -2.93636435      -0.06128713       4.17557311      -0.86448510      -0.47638693      -0.48052684       0.18002988      -0.02915945      -1.58918933
H       -3.15974865       0.92347988       3.75605702       0.13933130      -0.09434074      -0.01350866      -0.42108954       0.08695055       0.22470921
H       -3.65567960      -0.32837196       4.97350127      -0.01303405       0.02635208      -0.06462312       0.61802793      -0.07431128      -0.52193096
H       -1.90469424       0.05137196       4.48922058       0.08484002      -0.24379730      -0.14515276      -0.01759066      -0.30375116       0.73737153
C       -2.46252429      -2.45920091       3.36600649       0.10941131       1.03440929      -0.07806777      -0.42942369       0.84603938       0.10699321
O       -2.18769851      -2.66063529       4.55802431       0.37268409      -0.22588720       0.36463728      -0.01791163      -0.23224017      -0.76237113
N       -2.45915436      -3.43347294       2.41335676       0.76343003      -0.04564667       0.83141374      -0.07396655       0.56667538      -0.68577155
H       -2.42380522      -3.16715028       1.41045476      -0.16268672       0.05933436       0.02740650      -0.19290428       0.01902363       0.97264997
C       -2.13422795      -4.80266972       2.76993388      -0.72357321       1.10540953       0.14962834      -0.13644395      -0.75371979       0.03928170
H       -2.41110990      -4.85120987       3.85660072      -0.09340575      -0.10417716       0.08782570       0.32233954      -0.30859346      -0.80243398
C       -2.92778274      -5.82266671       1.90324722       0.86465820      -0.09515692       0.41093419      -1.64635149       2.40946102       0.31945960
H       -2.93999984      -6.81674604       2.26279003      -0.22274361       0.01669208      -0.07415677       0.18784066      -0.94155633       0.67518880
H       -3.98789267      -5.41332109       1.92011052      -0.13254341       0.03387845       0.11685806       0.99433334      -0.74040354      -0.04224815
H       -2.63583934      -5.85893603       0.86357149       0.20866295      -0.08400228       0.30720393       0.43620506       0.22956458      -0.22641011
C       -0.62559062      -5.01638930       2.59913919       0.43136770       0.20056369       0.18545116      -0.58933248       1.07085524       1.10671968
O       -0.14543700      -5.92136877       1.94438414      -0.31935858      -0.01518327       0.68302294      -0.23003845      -0.94316344      -1.38768478
N        0.16029271      -4.07957357       3.17523922      -1.34650871       1.30933830      -0.41379869       0.37688859       0.09899198      -0.07033591
H       -0.11900739      -3.52964642       3.97035027      -0.16879832      -0.01527467       0.39386155      -0.75763493       0.12347580       0.03246230
C        1.58690584      -4.13199263       3.00982351       0.15691580       1.34794871      -0.01707642       1.10672350      -0.60690025       1.45604256
H        1.85457385      -4.31458909       1.98562611      -0.18235690       0.14752853      -0.08998294      -0.12831011       0.12885002      -0.72103564
C        2.27426191      -2.87919573       3.53947977      -0.62989822       0.25441178      -0.33866363      -0.11109457       0.39015819      -0.11819320
H        3.30368548      -3.12511114       3.69755957       0.11836899      -0.04735932       0.26508528       0.78616513      -0.09072105      -0.09941252
H        2.22854481      -2.10978338       2.77507561       0.05920221       0.07818362      -0.05224491      -0.08574415       0.32382679       0.04958746
H        1.97496347      -2.46074492       4.52092175       0.02316725      -0.03436914      -0.21523416      -0.47865904      -0.54138699      -0.55984174
C        2.13686105      -5.34525309       3.80976255       0.64312425       0.47994554      -0.60085172      -1.05933591      -2.11865755       0.23179420
O        2.49308637      -5.26470304       4.98180206      -0.81998862      -0.12540254       0.70041086       0.66734513       0.63769682       0.18509464
N        2.01141376      -6.59825830       3.21497454      -0.01717114      -0.40259056       0.23189863       0.19838786       1.56316651      -0.53569232
H        1.34127439      -6.59711364       2.42652970       0.06362879      -0.14254819      -0.05403351       0.60073401      -0.12035108       0.38743150
C        2.20159946      -7.83292142       3.96631842      -0.90207428      -0.14992243       0.18301543      -1.56624786       1.38474919       0.94689384
H        2.02949549      -7.52915312       5.00805806       0.00691092      -0.28197509      -0.15062088       0.42325491      -0.01550427       0.19136254
C        1.11402416      -8.82673637       3.63238965      -0.04948640      -0.54714899       0.83190694      -0.49601138      -1.25629137      -1.45396095
H        0.33708825      -9.03903844       4.39201374       0.12638097       0.13642294      -0.23638717       0.81426910       0.19612698      -0.06128054
H        0.53573745      -8.54496221       2.72852012      -0.00040686      -0.16341289       0.05640056       0.35978226       0.22100041       0.39276681
H        1.62998816      -9.74737523       3.31801763       0.23142988       0.13435718       0.05410034      -0.42881489      -0.08558512       0.48774001
C        3.60055142      -8.35964940       3.90615173       0.25868278       0.42261861       0.49882759      -0.32824032       0.02413025       0.03127091
O        3.85277701      -9.56368928       3.96407054       0.84644138      -0.34060717      -0.37330239      -0.38859244      -0.76298676      -0.24523266
N        4.57442575      -7.45706991       3.80766177      -0.30212201       0.74101180       0.04273423       1.01051767      -0.23074800      -0.25537155
H        4.47074747      -6.47817335       3.96913227       0.01393473       0.10210255       0.29491157      -0.51847333       0.43781938       0.03310222
C        5.91665104      -7.93749431       3.53459457       0.81166109       0.75074048       0.35142493       0.11560664       0.17717312      -0.43230918
H        5.77210218      -8.85444201       2.93633454      -0.06322915       0.11154652       0.04783775       0.06674178       0.11505754       0.39807835
C        6.71764597      -6.97381832       2.63323954      -0.74627959       1.31231649       0.13075859       0.18919800      -1.13068050       1.38558003
H        6.19793693      -6.73174720       1.72579122       0.09008092       0.04250966       0.24808959      -0.31375008       0.13887093      -0.33517832
H        7.10650677      -6.11809127       3.15826595      -0.20946056      -0.11111488      -0.00745010      -0.20698389       0.54749082       0.22823186
H        7.58854083      -7.57101525       2.43147112       0.10524369      -0.04445862      -0.26791209       0.62458072      -0.04532279      -0.59604799
C        6.65123280      -8.34994550       4.83601523      -0.18121929      -0.61554957      -0.22956227       1.64568582       1.10278862      -0.69679189
O        7.77188359      -7.84324312       5.11721530      -0.48737664       0.92974986      -0.35799961      -1.96040101      -0.97803255      -0.10596154
N        6.03054096      -9.31739010       5.55393613      -0.66156809      -1.11373393       0.78614464      -1.34802449      -0.46819376      -1.18128166
H        5.29867651      -9.88431807       5.03085865      -0.03323902       0.20709587       0.08885368       0.89820756       1.14265115       0.60489024
C        6.81521279      -9.99334708       6.51133838       0.09599752      -0.22129145       0.06400961       0.84710858      -1.42102763       1.40560553
H        7.17787555      -9.25257932       7.20377440       0.18118987      -0.05203028       0.02100753       0.57196550       0.28128186       0.30230509
C        6.02142918     -11.07847564       7.34436458       0.87105036       0.18295542      -0.54011932       0.68147426       1.57881694       0.12886193
H        5.25605152     -10.49476673       7.89366299       0.13922697       0.22339736       0.07710434       0.43464322      -0.60871332       0.18338032
H        5.50749226     -11.65904130       6.61777150       0.23441530      -0.15170336      -0.10047024      -0.39078600      -0.99760110      -0.45440025
H        6.69914974     -11.70894557       8.00316199       0.00777893       0.21000215      -0.06027492      -0.91834383       0.93859124      -0.80570673
C        7.94050018     -10.71728206       5.76922221       0.49775223      -0.84945146       0.56598932       0.77276214      -1.06820766      -0.25958827
O        7.64985258     -11.43769208       4.79115765       0.61702566      -0.32266173      -0.54359487       0.53822629       0.86810407       0.95324426
N        9.21684925     -10.65077491       6.29046898       0.17060505      -0.67982749      -0.38992896      -0.71063439       0.34941244       0.54054095
H        9.41067051     -10.03709744       7.11569216      -0.27821824       0.05764807       0.03356439      -0.00805552      -0.91827046      -1.22084108
C       10.26299047     -11.49077633       5.72378695       0.03152004      -1.08142788      -0.51805744       1.46634224       3.08702375      -0.56200910
H        9.83033668     -12.38674531       5.45311752       0.14023052      -0.14094428       0.29841809      -1.01207930      -2.06114629      -0.77381684
C       10.99081201     -10.84484439       4.44961713       0.16928470      -0.59023316       0.05487428       0.41238350       0.73634944       0.74480659
H       11.43986538      -9.83322063       4.71888248      -0.11648263       0.23027008       0.06014280      -0.44088941      -1.30037780      -0.04473439
H       11.80047359     -11.53723996       4.19505906       0.27059171      -0.12470727      -0.26521563       0.01597483       0.33547645      -0.14835180
H       10.42853405     -10.66382881       3.53234729       0.03792178      -0.12154484      -0.15116190      -0.62533247      -0.30783153       0.37965739
C       11.42096508     -11.72104999       6.68622801       0.23897010      -0.33703102       0.11522481      -0.65666999      -0.05298541       0.72026512
O       11.57313995     -11.07500783       7.72539895       0.07003358       1.46384618       0.78513200      -0.10113524       0.27496830      -0.19850391
N       12.28571720     -12.69031862       6.31285668      -0.05459328       0.38101231      -0.69029389      -0.81258121       1.05101883       0.22697368
H       12.16794344     -13.16689329       5.43396575      -0.08913177       0.04687956      -0.14347890       0.26760541      -0.22944853      -0.17299003
C       13.57157142     -12.72239399       6.91315565      -0.74114514      -0.18537988      -0.28096998       1.47281279      -1.00925997       0.87839793
H       13.92049516     -11.67958334       7.18650854      -0.22577635      -0.03177408      -0.06296986      -0.42758900      -1.13137956      -0.11913454
C       13.50695188     -13.70350541       8.20639854       0.06979524      -0.79176949       0.22863504       1.36845179       1.13704277      -0.47400578
H       14.45383050     -13.58664708       8.83109977      -0.07142797       0.12343195       0.14993504      -0.94263576      -0.47790694      -0.93618516
H       12.71538983     -13.29225695       8.85138206       0.11144560       0.08179359      -0.09538459      -0.04957306      -0.55197360      -0.39875572
H       13.36789850     -14.75831413       7.83243095       0.11534898      -0.08602522       0.25010101      -0.02378150       1.12496887       0.69851910
C       14.48801012     -13.40614732       5.83599092      -0.77940636      -0.62413528      -0.42636729      -1.04674915      -0.52676141       0.82974915
O       13.90143767     -13.97523698       4.90838204      -0.31728439       0.41727061       0.50307437       0.67715004       0.00891216      -0.59058057
N       15.80340332     -13.54500094       6.08497045      -0.03668530      -0.20389701      -1.38641154       0.01860579       0.94534688       1.48033030
H       16.10132332     -13.25205300       7.03163531       0.13601345      -0.13930937       0.05996723       0.03198253      -0.44189176      -0.93390743
C       16.60215396     -14.51533508       5.34638471       0.67898929      -0.43739658      -0.26480691      -2.28604639      -0.01242038      -1.34383253
H       15.78054290     -15.26015356       5.06368723      -0.08903914      -0.31887078      -0.12082296       1.33950533       0.08527642       0.44291116
C       17.02738389     -13.88106268       4.00843325       0.46232113      -0.40028781       0.30840643       0.39259839      -1.26220814       0.75741997
H       16.15000092     -13.55276858       3.46097238       0.27445242       0.04256320       0.32200129      -0.01605164       0.02292195      -0.01183661
H       17.66182760     -13.05604660       4.28748562      -0.19288194      -0.06346223       0.06436522       0.48061487       0.40187676      -0.50656132
H       17.54728428     -14.67870533       3.44314789       0.15974245      -0.21282971      -0.07854654      -0.04397160       0.71555983      -0.12459680
C       17.67268595     -15.07169412       6.24466190      -0.52747574       0.23670703       0.74644449       0.11660965      -0.22140125       0.64174347
O       17.48634264     -15.11444772       7.46531728      -0.44021468      -0.17840653       0.05780958      -0.07105287       0.17926641      -0.07812046
N       18.83319047     -15.49480167       5.69828350      -0.72801174      -0.24264631       0.92360492       0.30372286      -0.56178061       1.69903748
H       18.94333625     -15.56914555       4.71058440       0.07493364       0.20091191      -0.21075392       0.08169476       0.03260800      -0.44399814
C       19.90422297     -16.10643092       6.58578625       0.75819978       0.20423630       0.13141859      -0.23444423       0.05363969      -2.44873038
H       20.77649812     -15.44159478       6.45299445       0.28365050      -0.07240465      -0.27609632      -0.23810286      -0.36407801       0.80913462
H       19.55696754     -16.32091080       7.59355073       0.43358358      -0.26326608       0.17740439      -0.06618398       0.61116318      -0.14406294
H       20.15270573     -17.06427603       6.09634717       0.14894598      -0.03945011      -0.19069714       0.07154326       0.22007897       0.31228381
