112
Properties=species:S:1:pos:R:3:momenta:R:3:forces:R:3 energy=-496.5180517056946 pbc="F F F"
H       -8.76120946      -2.20697834      -2.32024660      -0.12173768       0.22560010       0.22884782       0.03728713      -0.62545368       0.56530855
C       -9.06234309      -3.14736304      -1.80535207       0.19423849      -0.30600274       0.51761653      -0.43764139      -0.19305008       0.11131058
H       -9.86317154      -3.62292878      -2.46600862       0.12047851      -0.10164586       0.16087336       1.38026346       0.05164401       0.73131113
H       -9.58455437      -2.89017840      -0.84061029      -0.25617698       0.01122478       0.01538641       0.47609948       0.04248639      -0.99535345
C       -7.82061786      -3.97881409      -1.25681408      -0.61761483       0.46749497       0.52606060      -2.61626162       0.19169051       0.99007411
O       -7.18797749      -3.45646575      -0.32341228       0.23842476      -0.69597673      -1.02521209       0.53075851      -0.50930698      -1.07101401
N       -7.83715117      -5.32062459      -1.52249766      -0.59935111      -0.73846230      -0.24533141       2.35288895       1.25865081       1.23813718
H       -8.46091222      -5.66197276      -2.18248696       0.01498991      -0.08974914       0.02522408      -1.14859818      -0.47229350      -1.49128531
C       -6.87402543      -6.32478162      -0.97299324       0.46784721      -0.11777746       0.07996551       1.11120229       2.02456971      -0.73710709
H       -6.99763595      -6.26624487       0.10208949       0.03938527      -0.23833149       0.25746556       0.05183070      -0.36285143       0.38164441
C       -7.22046103      -7.62624187      -1.60930509       0.12766702       0.59626093      -0.35533337       0.53293802      -0.70494784       0.49991802
H       -6.44115982      -8.37095012      -1.39597524       0.03140526       0.15309844      -0.22202504      -0.40502952       0.08495030       0.25711906
H       -8.18525244      -7.91164732      -1.18853556       0.23968128       0.21152268      -0.00290195      -0.05850548      -0.44996679      -0.42858729
H       -7.19923507      -7.55879112      -2.69699648      -0.22701988       0.28340154       0.09442254      -0.35899579       0.17453578      -0.02006030
C       -5.30443339      -5.95788469      -1.30068997       0.20029774       0.07336688       0.85289852      -2.62022409      -1.06812964       0.18763492
O       -4.66973014      -6.70698561      -1.99726400       0.47966707       0.36219196       0.20159104       1.19321770      -1.64365116      -1.50772669
N       -4.79991669      -4.87337393      -0.78060584      -0.17504901      -0.79892959      -0.64915133      -1.75698439       1.54902743       1.97044596
H       -5.47303684      -4.28856387      -0.30503005      -0.07028762       0.10148647       0.12013092      -0.21432607       0.41916401       0.35673724
C       -3.58271879      -4.30418698      -1.17695722      -1.10513688      -0.51263010       0.07842974       1.68087402      -0.04372912      -0.95546316
H       -3.45132775      -4.74642828      -2.18534793      -0.03684245       0.33254450       0.14065252       0.63030362       0.39288436       0.27327947
C       -3.61802735      -2.78254753      -1.15828298      -0.54004730       0.25923140       0.38539164       0.75614261       0.14426801       0.76519479
H       -3.52671909      -2.56643148      -0.06349737       0.00158402      -0.32730648      -0.00339966      -0.56315884       0.48505750      -0.87269946
H       -2.71867214      -2.32342180      -1.61728233      -0.07902390      -0.27886180       0.12120876      -0.34525841      -0.52902009       0.13490232
H       -4.48953222      -2.36649269      -1.67145679       0.15448810      -0.20939381      -0.13818159      -0.06017485      -0.10810549       0.41964546
C       -2.42856551      -4.77078409      -0.23694905      -0.31709136       0.17912988      -0.06549532       1.14294544       0.97784714       0.84559176
O       -2.07141443      -4.17221226       0.81826097      -0.86998033       0.31749033      -0.13282523      -1.37014597      -0.68404506      -1.50667327
N       -1.70352343      -5.80235565      -0.70507431       1.04000243       1.14320477       0.02428345      -1.26436657      -0.43841861      -0.77714628
H       -2.09397766      -6.26881869      -1.54282041      -0.10879257      -0.15003238       0.00905635       0.70613722       0.08479803       0.77845131
C       -0.53075139      -6.26600878       0.03445461      -0.26233356       0.46142989      -0.54737072      -0.23561361      -0.94530233      -0.49229006
H       -0.86505837      -6.34144714       1.11121944      -0.10558942      -0.06930734      -0.18669809       0.86510327       0.39012247      -0.97470902
C       -0.03503945      -7.58784453      -0.52555006       1.09271604       0.17815404       0.47301227       0.12991554       0.41828108      -1.08897788
H        0.97622859      -7.86641796      -0.24835438       0.04481805       0.04898610      -0.04999720       0.02676643       0.18526287       0.49719738
H       -0.69206229      -8.40430823      -0.38022136      -0.18420430       0.27322485       0.06879898      -0.78751005      -0.84109900       0.55933089
H        0.02453570      -7.46839614      -1.60815089      -0.01896740      -0.00413894      -0.31240565       0.09355925       0.09283163      -0.15839060
C        0.55861358      -5.23878209      -0.28480252      -0.13535489       0.23444522       0.47753563       0.01051822       0.88375905       1.93560901
O        1.29937132      -5.19949558      -1.25669464      -0.51957121       0.04508287      -0.80313049      -0.35907965      -0.66055208      -0.19538080
N        0.65811505      -4.35140973       0.74988463      -0.22177249       0.17707804       1.21622317       1.40949955      -0.47273393      -0.85433751
H       -0.11320996      -4.09081113       1.27059692       0.06996112      -0.41266731      -0.07748471      -2.35644899      -0.40703131       1.16309679
C        1.60840520      -3.31019887       0.70551865      -0.57746006       0.01689519       0.54813901      -0.95425984       0.82074937       0.84816870
H        2.03462583      -3.42098773      -0.23208417      -0.04152118       0.06477035      -0.07546710       1.79042826      -0.18701012      -1.63793970
C        0.93815408      -1.93757400       0.67020416      -0.12581266      -1.86405083      -0.80349812      -0.21062127      -0.10078069      -0.04770482
H        1.71816620      -1.15174674       0.68399022      -0.14644949      -0.06706102      -0.03230754      -0.63226480      -0.31872425       0.03150023
H        0.37016426      -1.95126789      -0.27013365       0.10032841       0.11531118       0.24936385       0.05270796       0.50955787       0.21085399
H        0.21632469      -1.85175623       1.50101172       0.44838041      -0.17541017       0.16969961       0.34819806       0.28082543      -0.18629186
C        2.62207416      -3.37894565       1.78842380      -0.12017248       0.32197018      -0.06977494      -0.70024082      -0.86042380      -0.28359895
O        3.59843552      -2.68154573       1.67883571       0.94868744      -0.05907491      -0.05015799       2.05154170       1.46055172       0.09820597
N        2.46437814      -4.22963281       2.82288074       0.44665500       0.37750535      -0.10054291      -0.63843272      -0.23092614      -0.32862054
H        1.71375363      -4.90867584       2.93451609      -0.06181024      -0.08266364       0.19553642       0.06980312       0.31249306      -0.25708563
C        3.56456818      -4.42080004       3.69265412       0.11553529      -0.57895959      -0.88984214       0.37423806       0.31092097       2.31286078
H        4.49177432      -4.32165582       3.13359871       0.15907061      -0.05471262       0.00326337       0.16002391       0.22361056       0.02895788
C        3.52927555      -3.44700334       4.93992577      -1.65179045      -0.40578846      -0.37134991       1.61664266       0.01599371       0.62820296
H        3.47934528      -2.36435402       4.67094925       0.14756073       0.01831150      -0.18720977       0.16947080      -0.90377170      -0.09063880
H        2.68886667      -3.66737031       5.60936280       0.08098400       0.15092585      -0.30031571      -0.05655370      -0.12854512      -0.39280861
H        4.47093345      -3.62821161       5.59626404       0.00704180       0.15784383      -0.12548928      -1.34851904       0.38553337      -1.14797453
C        3.41947274      -5.81993891       4.28286726      -0.82908475       0.00209527       0.34423629      -0.70941615       0.12490656      -1.17088734
O        2.28376139      -6.25436868       4.48319407      -0.00068465      -1.18736750      -1.61220555      -0.11667045      -0.19162537       0.42691939
N        4.50940924      -6.59363880       4.36245875       0.72998386      -0.86787398      -0.18718260       2.07455105      -1.94424453       1.92518185
H        5.47214078      -6.20787467       4.40164791      -0.02125215      -0.05716719      -0.23848203      -1.26805701       0.20978807      -0.30256178
C        4.46403050      -7.87731319       5.23170461       1.03495736       0.41893727      -0.50440650       0.58831565       1.10228021      -0.97782998
H        3.47573742      -7.91564943       5.63866987      -0.06982321      -0.03118469       0.03735597      -0.62026304       0.56607544       0.74564147
C        4.50558658      -9.14241462       4.37776053      -0.71180885      -0.60778050       1.22941750       1.37632129      -0.04255815       0.90232171
H        3.88195920      -9.02171416       3.55402425      -0.08933559       0.00178702      -0.13046067      -1.34271529       0.43772798      -1.40816779
H        5.47962804      -9.35136146       3.94164798       0.25510206       0.04163837       0.19245460       0.33115543      -0.14152751       0.15877444
H        4.12567753     -10.01849112       4.90487995       0.43675538      -0.02939515       0.14337091       0.23348833       0.00696392       0.25120337
C        5.53124581      -7.70235124       6.37775387      -0.27748950       0.43332344      -0.03505711      -1.09740100       0.64421093      -0.63101759
O        5.72394162      -6.64093752       6.96063723       0.11562272       1.05716351       0.67135901      -0.47931862       0.67526158      -0.21222315
N        6.21174223      -8.79686365       6.69155800       0.38501758       0.17261012       0.57084559      -1.17713871      -0.44136501      -0.71608444
H        6.18931830      -9.50137168       5.97479375      -0.20368463       0.13260148       0.07379016       0.48412542      -0.77238819       0.25038244
C        7.25403183      -8.73519438       7.64039324      -0.02244578      -0.49430037      -0.41888373       1.80368339       0.22442158      -0.28781817
H        7.59408811      -7.65805577       7.66090998       0.27215752       0.13880504      -0.20136480      -0.30999593      -0.96976180       0.27613764
C        6.87992341      -9.24534774       9.00202773       0.16323621       0.47296566      -0.73892015      -0.54514306       0.51684022       2.01148938
H        6.07612041      -8.62902488       9.46177338      -0.12359178      -0.00915559      -0.11826878       0.72738135       0.15336943      -0.21459757
H        6.39539585     -10.19881171       8.99456147      -0.03106083       0.11739912      -0.17420687      -0.07361676      -0.99274134      -0.59058626
H        7.71988490      -9.36382109       9.73695292      -0.09032395       0.05305736       0.20659360      -0.53058344       0.47404490      -0.80437969
C        8.39194142      -9.58467985       7.05138327       0.12852289       0.47447347      -0.74171641       0.52757125       0.41166676       0.22090685
O        8.22131245     -10.36903063       6.11807394       0.08845598       0.32396909      -0.21657662      -0.00880221      -0.12888739      -0.06945103
N        9.59217802      -9.36616817       7.62361226      -0.20072090      -0.29771886       0.43294923       0.64183208       0.32256529      -0.02547950
H        9.73419764      -8.72936913       8.40354491       0.11750492       0.08558775       0.13222953      -0.45646332      -0.16176941      -0.10207455
C       10.82324074     -10.02878391       7.21656901       0.65787862      -0.15932844      -0.75839267      -0.60948799       0.72832704       0.00415129
H       10.49481906     -10.98201113       6.82526704      -0.19233234       0.04467618      -0.35367168       0.18080632      -0.78040820       0.36347998
C       11.49824635      -9.34561136       5.99007795       0.74910347      -0.07174328      -1.02201174      -1.96357085       1.35570687       1.40266402
H       11.66093713      -8.24969020       6.29426013       0.08642158       0.01090372      -0.07490465      -0.11525602      -1.46166494      -0.93679578
H       12.42260300      -9.84137166       5.78514246      -0.15113999      -0.02509675      -0.11828686       0.51543743      -0.12820445      -0.57953718
H       10.68510296      -9.49932126       5.23146847      -0.07571578       0.14683284      -0.10115290       1.25469030       0.60901013       0.09568304
C       11.70617426     -10.13286361       8.46157393      -0.06320670       0.07571200       1.04970239      -1.37965906       0.05287598       0.31879229
O       11.34113848      -9.79604554       9.61377998       0.24556032      -0.78821954       0.22361769       0.37815178      -0.15995686      -1.44039481
N       12.87719150     -10.67374456       8.17718617      -0.69077111      -0.61093264       0.45855903       2.00006522      -1.68177831       0.69751729
H       13.16048683     -11.10321737       7.26856515      -0.00784408      -0.03299080      -0.08999091      -0.46827629       0.70984854       0.95810081
C       13.67514880     -11.24682841       9.29988340      -0.00976096       0.35028284      -0.15868384      -0.92607544       0.91054817       0.53922311
H       13.75461459     -10.45137200      10.05990931       0.12108585      -0.01692838      -0.03531273       0.17958430      -0.14560787      -0.19234779
C       12.95153363     -12.41312473       9.97788178      -0.86718758      -0.16174240       1.12088324      -0.55903344      -0.68075865       0.47094322
H       12.08252890     -12.03914508      10.56413395      -0.02833302      -0.19305622       0.03855438       0.75289730      -0.09996356      -0.21095264
H       12.49841253     -13.13560603       9.26174955       0.05429024       0.20476334      -0.22111564       0.67121242       0.36561400       0.20528086
H       13.67056238     -12.94744710      10.64790540       0.16614234       0.24452402       0.08898369      -0.71142041       0.30612892      -0.42276943
C       15.01341628     -11.63159999       8.75174199      -0.17375146       0.82603852      -0.36186427      -0.38451876       0.79333767      -1.55609011
O       15.09071407     -11.60751345       7.50070388       1.01515133      -0.97034513       0.73412382       0.47243291      -0.90274326       0.49442424
N       16.03362272     -11.94339264       9.55575610       0.26082778       0.58914401       0.15350163       0.31981311      -0.42607681       0.71498529
H       16.04962056     -11.82586413      10.59257025       0.22113003       0.13570286      -0.02408227      -0.17197132      -0.09505838      -1.17801189
C       17.21164894     -12.63809210       9.00989722       0.34291247       0.07568523      -0.37086441       0.82508069       2.71290983       1.14223163
H       16.88368512     -13.45224208       8.44744596      -0.03590220       0.05335820      -0.14860262      -0.55919103      -2.01553401      -0.30756711
C       17.93723445     -11.79439068       7.93503469       0.18054666      -0.47969363       0.22330513       0.28421714       0.89456989       0.08326973
H       17.09525572     -11.36025802       7.33816891      -0.11131096      -0.02211032      -0.03897343       1.12575249      -0.18082275       0.21885639
H       18.63783431     -11.00333667       8.34254137      -0.09998550      -0.06323617      -0.08552625      -0.94539115      -0.77098116      -0.30716288
H       18.53116400     -12.48062303       7.31420706       0.17707689       0.10438320       0.15647146      -0.11885787       0.26712815       0.00596420
C       18.13512652     -12.86529629      10.22688770       0.06668576       0.63920448      -0.48442438       0.27296209      -1.77577372      -0.71064450
O       17.97006265     -12.31065585      11.29549652      -0.13256384      -0.17726244      -0.56491951      -0.22435159       0.76634084       0.61258894
N       19.13876943     -13.77710590      10.02724133      -0.41096274      -0.10411169       1.23435220      -0.74655129       0.96865271       1.34064724
H       19.18678379     -14.13055447       9.12604863      -0.27288909       0.09147763       0.04125179       0.38048736      -0.86676058      -1.78998124
C       20.28917681     -13.86313916      10.89044154       0.29787570       0.54425079       1.08593673       1.14718348      -1.04444125       0.51169176
H       20.79250753     -12.91695976      10.93076106      -0.23826435       0.34596965       0.38035851       0.34967494       0.67193242       0.08581747
H       20.09541463     -14.15945882      11.93124661      -0.00764138      -0.03336179       0.20084732      -0.61488271       0.17860391      -0.31685171
H       21.05234338     -14.61616315      10.56360050       0.15592988       0.06253055      -0.31271716      -0.91688460       0.55954827      -0.29383066
