112
Properties=species:S:1:pos:R:3:momenta:R:3:forces:R:3 energy=-496.10764583198585 pbc="F F F"
H       -4.02707458       3.64605459       4.68647830      -0.09177918       0.02373255       0.09412431      -0.09124431      -1.42166664      -1.21278219
C       -4.18124986       2.53280676       4.38518592       0.05144406       0.80848580      -0.98347311       0.78815080       2.58322574       2.37721443
H       -5.11150850       2.42578843       3.92447582      -0.02342759      -0.16545675      -0.15421628      -1.32866409      -0.11514315      -1.22609235
H       -4.40338120       2.21625003       5.41901522       0.00679849       0.04291507       0.18139887       0.68927107      -1.00817563      -0.34671629
C       -3.03636029       1.91660228       3.62138827       0.79827964       1.01962984      -0.05746137      -1.07610198       1.38189210       1.67116400
O       -3.12978817       0.84429054       3.06508548      -0.94866197       0.21416930       0.51973365      -0.16573831      -1.70293941      -0.80493816
N       -1.90149165       2.63057183       3.63264137      -0.20650033      -0.35824281       0.83354063       0.52304697       0.32353560      -0.64024797
H       -1.92021989       3.60353442       3.94358643      -0.03046330      -0.07570352       0.21179181       0.14030249      -0.63934569      -0.15174761
C       -0.80563983       2.16469654       2.76945203      -0.10064972      -0.89263235      -0.40064855       1.26714716       0.31885445       2.09995552
H       -1.19284250       1.58713003       1.95896937       0.18535440      -0.10650505      -0.08692056      -0.64374377      -0.05198588      -0.70473471
C        0.02764831       3.37457176       2.32638290      -0.72375497      -0.02121567       0.56782808       0.51303883      -2.04548466      -1.74458792
H        0.89098731       3.58201567       2.93049572      -0.05134158      -0.20594787       0.58066667       0.04827239       0.21990061       0.60417019
H        0.41711795       3.15692472       1.30454841       0.11223540       0.07693239       0.20092970       0.04765151      -0.07628032       0.63100428
H       -0.61124564       4.18897254       2.12373623      -0.07242884      -0.17533836      -0.13169487      -0.71132909       1.24090640       0.28990831
C        0.02900945       1.09584374       3.62538813       0.40167251       0.59056523      -0.41009149       0.35636733       0.42179792      -1.40898534
O        1.14408836       1.36155476       4.07287207       0.63009833      -0.57231422       0.87232653       0.09431931       0.13185559       0.29985065
N       -0.49578580      -0.15883181       3.67556830       1.01194686       0.84004467      -0.78902554      -0.19009519       1.38745038      -0.33161745
H       -1.46536146      -0.20425012       3.32807625      -0.07384209       0.38597650       0.01897456       0.35367130      -0.36861398       0.37135729
C        0.03170539      -1.11444969       4.63692204       0.11445446      -0.08827171      -0.35151723      -0.62258847       0.88795587       1.30447277
H        0.61777730      -0.54071756       5.41936142       0.18373958       0.21627020       0.03607713      -0.66603967      -0.28695162      -0.80175791
C       -1.16286244      -1.80916964       5.29506130      -0.13647513       0.30091357      -0.11948096       0.69048504      -2.38609706       0.24785609
H       -1.78830429      -2.32864844       4.56276020      -0.17311974      -0.11191691      -0.10402630       0.02213014       0.39243602      -0.41229419
H       -0.71558164      -2.73284778       5.78626470       0.15909792       0.04334507       0.25814548      -0.71516760       1.26157161       0.22899840
H       -1.85783037      -1.22403109       5.93358107      -0.19954365       0.10660205      -0.02875624       1.00014722      -0.08600842      -0.23810878
C        1.04889668      -2.05500810       4.00366193       0.61262872      -0.71275059      -1.46991520      -0.86033406      -1.84750093      -0.53553620
O        0.80309456      -3.27008176       3.82355494      -0.59016411      -0.12387295      -0.74102007       0.51218904       1.18242577       0.39468321
N        2.21312768      -1.48381458       3.62318814      -0.66172609      -0.53699358      -0.48481946       0.07348378      -0.52401642       0.81316307
H        2.22567035      -0.48677352       3.64048115       0.16880177       0.02744410      -0.18800614       0.24090211       0.93650245       0.23505523
C        3.15779360      -2.18458484       2.78111936      -0.33191789       0.12102711       0.64296558      -1.26899329      -1.23385556      -0.10465841
H        2.50139269      -2.87200411       2.24719409      -0.02618745       0.14223852      -0.31385444      -0.00378237      -0.51532538      -0.22501733
C        3.70918877      -1.28482247       1.76968604       0.18832978      -1.11320635      -0.67926266       1.80121462       1.99442087      -0.82518045
H        2.95309240      -0.70361568       1.26720048      -0.11106806      -0.14090756       0.05216755      -0.64591447       0.05208103      -0.10232019
H        4.43705346      -0.50523102       2.13433004      -0.08296598       0.31143650      -0.02685510      -0.47232965      -0.90929284       0.01242771
H        4.20157492      -1.85377930       0.99995150       0.16496745      -0.11498879       0.03507431       0.41904816      -0.23622926      -0.21131233
C        4.21358214      -3.13549197       3.39352459       0.06927356       0.21216655       0.10028256      -0.72559969       1.42999751       2.52983643
O        5.10401189      -3.60359924       2.73548660      -0.40300795       0.59227503       0.40393705       0.94527406      -0.88650114      -1.06994152
N        4.10911846      -3.29520927       4.76599259      -1.54969897       0.55628114       0.18886361      -1.12891950       0.37798127      -0.29292938
H        3.24964921      -2.85502242       5.17143365       0.19552408      -0.38502707      -0.15998037       1.33088093      -0.59666557      -0.24788568
C        5.03548599      -4.06220024       5.62418459       0.65365298      -0.30091801      -0.05935156       0.44878698       0.43523439      -0.77349927
H        6.07254555      -3.87964706       5.22175398       0.25833240      -0.09587725      -0.05545898      -0.94576641      -0.53539151       0.18319990
C        4.95634560      -3.43996427       7.02484358      -0.08772837      -0.21386815       0.16469713      -0.85866128      -3.61204398      -0.08198407
H        5.49509414      -4.05285379       7.76694900       0.06678722      -0.37283146       0.09873447      -0.30502022       0.14686342      -0.33680235
H        5.38153789      -2.52536209       6.97585410      -0.04638300       0.41065730       0.05914987       1.16953275       3.12089394       0.01675309
H        3.90290362      -3.39102327       7.27068499      -0.22427107       0.04783439       0.22177783      -0.20930081       0.17112794       0.49569154
C        4.74647709      -5.58713983       5.64200140      -0.17199740       0.78002837       0.19693068       1.57056061       0.15050502       1.49141359
O        5.54332144      -6.38192504       6.20382152      -0.01804175      -0.55717716      -0.65540190      -0.92270254       1.11475911      -1.15285487
N        3.57514977      -5.97043226       5.13340836      -0.11838481       0.25373349      -0.27251225      -2.26100976      -0.23584665      -0.44930208
H        2.80659214      -5.29639915       4.87121793       0.01626358       0.14675638       0.24251989       1.57986357      -0.74304253       0.28852753
C        3.16146661      -7.37289999       5.21444430       0.98239797      -0.00420522      -0.28562302      -1.32570266       0.07902259       0.45787615
H        3.64828055      -7.89494877       6.04299181      -0.01261102      -0.18418877       0.38182756       0.33567243       0.50659473       0.01499808
C        1.61308276      -7.57717464       5.42744737      -0.01082638      -0.83526212       0.14369616       2.09341205       0.69130908       1.62599525
H        1.12653212      -7.65548877       4.50246665      -0.07760259       0.08063034      -0.18930155      -0.98790973      -0.22791120      -0.96013943
H        1.46581171      -8.38405659       6.12882292       0.02791075      -0.08922918       0.18385164      -0.10248703      -0.83383728      -0.52572810
H        1.28965907      -6.76658700       6.03356237      -0.05558912      -0.11632551      -0.01293733      -0.63306610       1.24376055       0.11448234
C        3.46291530      -8.20257918       4.01919515      -0.39520098      -0.66223102      -0.93777637       1.29684286       1.91060040      -1.86898333
O        3.07521669      -9.33272245       4.02736900      -0.12086351       0.82624510       0.00047639      -0.24651420      -2.98943951      -0.21772783
N        4.07168786      -7.60157003       2.92441037       0.27812739       0.15131026      -1.23121136       1.39437714      -0.40638944      -0.04964859
H        4.29228668      -6.61753429       3.04108047       0.10320328      -0.00026854      -0.00470486       0.15316503      -0.14195290       0.03975392
C        4.93819366      -8.34411956       1.83760308       0.07580500       0.45351511       0.67347907      -3.85042712       2.33773481       1.42534438
H        4.32769224      -9.22593173       1.73894258      -0.05115053       0.20902837       0.10746069      -0.07591323      -0.63971354      -0.62562077
C        4.92526620      -7.42353909       0.59104561       0.41036449      -0.65061891       0.40212968      -1.61539891      -1.62018584       0.88496455
H        5.26178736      -6.45052657       0.90863547       0.13950061       0.17161835      -0.12162416       0.18308234       0.44515224      -0.37620093
H        5.52935138      -7.93213930      -0.12599102       0.00406265      -0.03422966       0.17102353       0.71882217       0.18503327      -0.67120277
H        3.87090036      -7.43671982       0.21249589       0.03254911       0.29027688      -0.33036436       0.90939760       0.46588284       0.31642799
C        6.25933602      -8.77955039       2.24255039       0.42083418      -0.05868895       1.02026495       2.00894149      -0.69948547       1.71038799
O        6.92826085      -9.34495965       1.37282181      -0.64529414      -0.13478235       1.04727467       0.33898610       0.32476118       0.74363087
N        6.68769776      -8.60999418       3.58541464       0.65874281       0.71874728      -0.17624669       0.11028291      -1.66862763      -3.81599027
H        6.08969945      -8.31188618       4.26568992       0.16546357      -0.06615474       0.25457093      -2.16132215       1.26774964       1.87082997
C        7.99525278      -8.97573058       3.99417805       0.71375768       0.27681307       0.75178461       0.80785609       1.28533658       0.09086579
H        8.47062992      -9.04821726       3.01666239      -0.13732064      -0.25942916      -0.08106098       0.94515122      -0.25828786       0.15352558
C        8.52195771      -7.78437928       4.87939127       0.54336295       0.82329752      -0.63566914      -2.60294864      -1.57510736       0.04294484
H        9.48877588      -7.99372726       5.18160761       0.04580967      -0.05070018       0.08651172       2.16637508      -0.04798456       0.33234701
H        8.37255489      -6.86220604       4.32079361       0.08756610       0.36323174      -0.00634388       0.10999460       0.07355501       0.41278683
H        7.89968921      -7.88803722       5.81834130      -0.00570812       0.13779455       0.04607838       0.43384886       0.87322357      -0.91807220
C        8.21074125     -10.29153269       4.74797961      -0.14974960      -0.50607653       0.38515837      -1.14495053       1.07462477      -1.46752241
O        9.35870805     -10.59231218       5.05931244      -0.56183267       0.27653452      -0.66455807      -0.24955036      -0.59879631       0.62770021
N        7.05613860     -11.00044931       4.96157356      -0.04174279      -0.50678551      -0.43866604       0.17942895      -1.85585465      -0.22750252
H        6.25713435     -10.92600832       4.32539828      -0.13951468      -0.02629996      -0.03081387       0.56497234       0.87284680       0.15046876
C        7.16486835     -12.40868883       5.39559587       0.34843958       0.00635240      -0.40762312       1.27282318      -1.08923255      -0.90491804
H        7.91383849     -12.37337192       6.23184542      -0.06847872       0.19657153       0.16001711      -1.19358833      -0.27111459      -0.12897347
C        5.77648556     -13.08098640       5.68268484      -0.85922368       0.42063523       0.67073334       2.11758410       1.68454584       1.71840092
H        5.31820319     -12.32814847       6.36780985      -0.05181221       0.16972976       0.08637740      -0.21723418      -1.15811357      -0.16806412
H        5.14808131     -13.30436556       4.85763705      -0.21890402      -0.11032910      -0.20899140      -0.23835189       0.25768926      -1.09964047
H        6.04938338     -14.04033034       6.12912480       0.08407022       0.31544783       0.01388910      -0.46350898       0.18844812       0.45678664
C        7.94393575     -13.35741493       4.31870070      -0.08289942       0.18685537       0.21253807       0.36236526       0.95273633       1.36863007
O        7.33547330     -14.08346323       3.56168447       0.17690681      -0.29003916      -0.19464104      -0.45622241      -0.59943890      -0.56966081
N        9.31658008     -13.38069447       4.45400206       0.12329506      -1.05799929       0.55711398       0.57142959      -0.40893857      -1.29318780
H        9.70404370     -12.51983109       4.84370988       0.09846258      -0.07667115       0.06873977       0.01182466      -0.09687432       0.04659928
C       10.14850821     -14.05300167       3.33170645       0.47031524      -0.88724202      -0.50497604      -1.95226658       1.04512897       0.42420828
H        9.48367689     -14.06828055       2.44437549      -0.21191209       0.06706837       0.21573582       0.35103798       0.35058488       0.29110670
C       11.46440820     -13.35621626       3.08247001      -0.08263857       0.13576177       0.01123292       0.09641208       0.13708704       0.74878240
H       12.18906900     -13.69628652       3.81363439      -0.06375535       0.14683922       0.01612299       0.33081310      -0.17102053       0.08001585
H       11.80996720     -13.58825057       2.09907769      -0.14078525      -0.17207292      -0.12422040       0.33183144      -0.30835238      -0.62534974
H       11.44946597     -12.27863931       3.18026087       0.11734283      -0.08376994       0.08107930      -0.47536749       0.33781442      -0.06221596
C       10.36157420     -15.52156335       3.55378059      -1.40826824      -0.22659502      -0.42657012      -0.39860745      -1.39414778       0.75560846
O       10.47905399     -16.31072877       2.62448684      -0.36996213       0.32523426      -0.58076400       0.37091900       0.13461449      -0.95483115
N       10.34350770     -16.00152793       4.81559274       0.06608321      -0.55019203       0.26130557       0.15554386       0.77002201       2.80647624
H       10.03999968     -15.40612643       5.60286646      -0.19289689      -0.13229049       0.14923195       0.38581504       0.02991147      -1.00714363
C       10.43982506     -17.41390579       5.22748482       0.12024420       0.77587888      -0.07495636      -2.31393534       1.74858704      -0.31408650
H       10.82777731     -17.88713048       4.39970004      -0.45377017      -0.11750122      -0.07056650       1.75911930      -1.13605315      -1.82230169
C       11.13880458     -17.76520664       6.50627126       0.22840955      -0.61492573       0.60216561      -0.01540578      -1.04572325      -0.74851860
H       12.15299685     -17.41358808       6.52907877       0.20084474      -0.26320871      -0.07082913       0.47679531       0.37323845       0.02903743
H       10.62000625     -17.54683280       7.43393934       0.56665328      -0.21149300      -0.21619706      -0.21564662       0.12953735      -0.05691372
H       11.17427741     -18.85124149       6.33892477       0.12283490       0.19023299       0.21417986       0.13023157       0.02934629       0.90363939
C        9.02272989     -18.03567478       5.15031957       0.39518573      -0.83367227       0.64549359       2.05841755      -1.35051745       2.26423819
O        8.82406264     -19.16959599       5.57318624      -0.45854998       0.46048872      -0.34404124       0.42003895      -1.06993189       0.03715569
N        8.05015127     -17.29438162       4.76020383       0.81702816       0.19415789       0.38914470      -3.42076551       1.26504480      -1.68387614
H        8.15890896     -16.43694978       4.30095729      -0.29056563      -0.11813776      -0.37285301       0.79933141       1.40862224      -0.51985707
C        6.74612592     -17.85758222       4.45839249       0.16280800       0.65953123       1.16539177      -1.03742325       1.63098330       0.91806764
H        6.65935289     -18.27942013       3.48939348       0.00577011       0.12120917      -0.21155084       0.28372366      -0.47543923      -1.10881685
H        6.57075624     -18.60897253       5.18033692       0.15438415      -0.17221371      -0.05549403      -0.43341214      -0.86731676       0.69655562
H        5.94519169     -17.06106764       4.52907868      -0.38325964       0.12329520      -0.22379257       0.98456868      -0.70511274       0.07918739
