112
Properties=species:S:1:pos:R:3:momenta:R:3:forces:R:3 energy=-497.59734854531365 pbc="F F F"
H       -5.66111224      -3.32562506       7.10198032       0.09212301       0.05838501      -0.10551293      -1.26848079      -0.67964353      -0.94899893
C       -5.07701584      -2.92310310       7.87488889       0.34816228      -0.29499914       0.36622838       0.64958701      -0.98210563       1.63696477
H       -4.86699476      -3.78358903       8.56818780      -0.20212629      -0.11626399       0.16800753      -0.42269702       0.74060148      -0.41963746
H       -5.65537661      -2.14120923       8.40956808       0.11487989       0.19396212      -0.01164313       0.83647436      -0.15067285      -0.39660694
C       -3.78052659      -2.66544865       7.17201361       1.11154023      -0.35515791       0.75905082      -0.06835956      -0.32476885      -0.47258826
O       -3.22526343      -3.54948700       6.47730005      -1.02109623       0.04043926       0.25205032      -0.50994729       1.02441096       1.01345800
N       -3.27888038      -1.40524781       7.28246716       0.27520389       0.30649559      -0.25539762      -0.24585278       0.36547310      -0.43841132
H       -3.94397405      -0.64658861       7.54281283      -0.20438764       0.15191328      -0.08279386       0.76028366      -1.03335427      -0.03327983
C       -2.31716194      -1.00837980       6.25303172      -0.55952442       0.74305320       0.63431998       1.77008201      -0.20299903       2.68577587
H       -2.70684496      -1.17664885       5.31670131      -0.11431893       0.22462679      -0.13329367      -1.11339125      -0.31544173      -2.32983968
C       -2.05687479       0.47404337       6.45867112       0.70015912       0.56638560      -0.65500428       0.47795390       0.25942124      -1.26056949
H       -1.56402683       0.75416551       7.39102329      -0.27103213       0.22441108      -0.23838610       0.01942019      -0.31600506       0.02138617
H       -1.42767527       0.79913347       5.59702994      -0.07571419      -0.07659234      -0.23924313      -0.47525694       0.11926782       0.69295065
H       -3.04023116       0.97438922       6.41895059      -0.06126205       0.10947815       0.19892228       0.41977087       0.10634965      -0.11896742
C       -0.97414982      -1.88722087       6.22626193       0.14361135       0.36356649       0.75661371      -0.64782080       2.48179128      -0.20309851
O       -0.25923909      -1.75865830       5.23220619      -0.41465149      -0.13203361       0.73873945      -0.05462748      -0.80487376       0.24319207
N       -0.63424101      -2.46028798       7.38857090       0.15790523       0.44623443      -0.14070985       1.83809723      -0.33574403      -0.67146409
H       -1.30650432      -2.37312708       8.11050266       0.03749722       0.09652745      -0.07799474      -0.41094656      -0.07903225       0.89468736
C        0.69031307      -3.07184619       7.66802833       0.68873278      -0.84187575       0.31340741       0.30741347      -1.05569426       0.02654582
H        1.56923119      -2.53154344       7.21538649       0.08922141      -0.20843196       0.07820483      -1.13375940       0.19235393       0.50312810
C        0.79057677      -3.19358274       9.20322861       0.91008600       0.07051138      -0.54930125      -0.43224603       0.92438744       0.64015236
H       -0.11629639      -3.73635793       9.59052608      -0.27290463      -0.11257546      -0.18146400       0.77185278       0.45984482      -0.31605125
H        1.68698171      -3.69710550       9.63566763       0.11647703      -0.28852530       0.12429951      -0.55069603       0.40390612      -0.79140701
H        0.74735200      -2.12443286       9.57652115      -0.00987062      -0.01255012      -0.06660098       0.10238803      -1.21597299       0.00427572
C        0.89050905      -4.49629751       7.01912506      -0.04331513      -1.13096651       1.06894052      -4.51832465       3.07637306       0.54614286
O        1.96936520      -5.00215951       7.11758854       0.27408375       0.55961925      -0.02599803       1.97199573      -1.73766347      -0.45277832
N       -0.27290367      -4.94387177       6.41486697       0.30671833      -0.28139028       1.21708804       1.27585453       0.39848049       0.08157558
H       -1.14084496      -4.35361251       6.51107042       0.05833865       0.07218898       0.03149001       1.08055568      -0.96173066      -0.39840321
C       -0.13629352      -6.18686110       5.65707863      -0.50590659      -0.61867276      -0.29132948       0.69370335      -0.62977591       0.81319798
H        0.30399511      -6.89081326       6.43766838       0.06809463       0.10869551      -0.20764653      -0.55356768       0.22310020      -1.25515427
C       -1.49501869      -6.63139716       5.10007525       0.00620847       1.18494838       0.26480562       0.10515180       0.17339628       0.60866825
H       -1.44539208      -7.54963792       4.49334027       0.09660269       0.06810404      -0.44214394       0.12062321       0.12148635       0.64073883
H       -2.20572211      -6.70357581       5.98305040       0.09555102       0.35365225      -0.14347795       0.57901702      -0.03201220      -1.34747577
H       -1.78556069      -5.85073012       4.39404099      -0.04472551      -0.14044289      -0.18839709      -0.50012042       0.11247145       0.20684029
C        0.98760750      -6.11152859       4.54834609      -0.91833403      -0.93196830      -0.52842250      -1.42960254       2.25898961       0.23973422
O        1.47113492      -7.12899614       4.13198801      -1.57042415      -0.39784642       0.29878316       1.15289735      -1.86323943      -0.59786559
N        1.30017895      -4.86566548       4.04485663       0.00950651      -0.51518094       0.00974187       0.46475312      -0.79747001       0.55785416
H        0.78148043      -4.10020137       4.41022217      -0.03565141       0.01811826      -0.26220340      -0.33355386       0.79489196       0.36194761
C        2.40562914      -4.54347549       3.11898243      -0.14210043       0.20838184      -0.09008593      -1.22531663      -1.20519401      -1.04109300
H        2.19285431      -5.12673349       2.22541603       0.15009337      -0.04378584      -0.11647237       0.21385501      -0.29616814      -0.33442259
C        2.35804156      -3.10451215       2.75437363      -0.15994857      -0.23559861       0.97103315       0.96699386       1.62275815       2.25312551
H        3.31904924      -2.78120973       2.36997395      -0.01861122      -0.09607711       0.09205967      -0.01350531      -0.10043511      -0.72588137
H        1.52102414      -2.79156515       2.16442916       0.03640231       0.06189840      -0.02205791      -0.36112905       0.01868631      -0.42322013
H        2.34147390      -2.54376649       3.73363943      -0.11765177      -0.00572282      -0.17499139      -0.37851688      -0.19946880      -0.79978306
C        3.78491788      -4.99152125       3.53839065       0.08212077       0.26179993       0.11660152      -0.17287642      -1.01436276       1.79012997
O        4.71344065      -5.24472267       2.74927685       0.15826483       0.69897981       0.02994894      -0.95622216       0.84198755       0.42603664
N        3.86831310      -5.25673195       4.88885651       1.54267241       0.02006564      -1.18719749       1.10954637      -0.22101498      -1.36402165
H        3.14246989      -5.06699821       5.56593976      -0.02005256      -0.11379607      -0.17539457      -0.37156699       0.02562234      -0.08334418
C        5.07907234      -5.86286165       5.35871359       0.66042168      -0.67559707      -0.10982597       1.66618732      -1.43960128       0.93400348
H        5.92791666      -5.36681602       4.84799017       0.13119080       0.07030065      -0.00007270      -0.24551593       0.01257344       0.41059962
C        5.23365560      -5.79104403       6.91335154      -0.24470883       0.08304781       0.63115242       1.74620713      -2.62177145      -0.80439248
H        5.57122729      -4.84004405       7.21359983      -0.01027836      -0.00973119       0.24419276       0.35863089       1.30777501       0.35599072
H        4.30208774      -6.01055083       7.42049374      -0.15954927      -0.02726147      -0.12678221      -0.13756385      -0.25040683       0.06882845
H        6.09042043      -6.57358651       7.22675536       0.04722335      -0.31895454       0.03220063      -2.05236407       1.68428945      -0.67930125
C        5.38163058      -7.38088988       4.85498369       0.22767864       0.46996566       0.33977979       0.69248971       0.18167595       0.13428118
O        6.53983838      -7.88438122       5.01938664      -0.36111386       0.82627733       0.05257961      -2.39715249       1.12863787      -0.42089305
N        4.37923986      -7.95702057       4.14591777      -0.43627988      -0.17871920       0.52759791       0.62982495       0.58075395       0.65889334
H        3.43856163      -7.45854531       4.17557191       0.02622005      -0.17427300       0.02660186       1.32804560      -1.17712704      -0.44222909
C        4.67683061      -9.16386952       3.29169294      -0.10926563       0.46716439       0.51741709      -1.49970079       2.19169954       0.60050279
H        5.22604232      -9.90322298       3.92628613       0.17553680      -0.02828426       0.14401181      -0.60270725       0.37631712      -0.65651640
C        3.30006903      -9.57171500       2.77852959       0.09983456      -0.03015337      -0.21488864       0.84754981      -1.22585532      -1.77617790
H        2.72286333      -8.78401890       2.24929928      -0.04129052       0.22809218       0.11479024       0.71777793      -0.15696767       0.39900123
H        3.53315717     -10.37392034       2.03421068       0.04995438       0.07790487      -0.14332359      -0.63897107       0.37982501       0.50627579
H        2.68577279      -9.95226583       3.55897017       0.01724660      -0.05651842      -0.12301931      -0.50051368      -0.41074442       0.67015512
C        5.59569578      -8.82040031       2.09888204       0.09028976      -0.60115831      -1.32194019      -0.02857695      -1.40119141       1.71592307
O        6.05699327      -9.80959646       1.50664120       0.53822786      -0.81827922      -0.21221323      -0.08217212       0.97699763      -0.45594330
N        6.02062848      -7.55539586       1.97526072       0.49358825       0.37691934      -0.78458534      -0.76246240       0.12484810       0.40188245
H        5.64250810      -6.71699980       2.44566165      -0.21155493       0.01445364      -0.01455497      -0.42233272      -0.90200628       0.03446417
C        7.14244774      -7.29344850       1.18417828      -0.13047068       0.65806934       0.14121563       1.82264386      -2.10860760      -0.91591285
H        6.94158376      -7.40828420       0.13248136      -0.06072736      -0.00830492      -0.08837986      -0.18653784      -0.12375791      -0.63425120
C        7.65936283      -5.94704301       1.45677495      -0.76675044      -0.28814062       0.94906196       2.00845605       1.66101249      -0.34093933
H        7.96178365      -5.79872619       2.48623834       0.06987383       0.19817626       0.06388101       0.07315321      -0.19091536       0.40181830
H        8.54513538      -5.67334332       0.82949963       0.08809038      -0.08528191      -0.12172677      -0.58211556      -0.56860710       0.39658813
H        6.95189635      -5.17189278       1.24984174       0.17234639       0.27180503       0.12920186      -0.83719362       0.36851116      -0.19490033
C        8.29481409      -8.40196256       1.43822963      -1.16693548       0.51293616       0.21234650       0.60358025       2.43603311      -1.23741564
O        9.07935017      -8.67442605       0.51921904       0.19140654       0.74669139      -0.68794656      -0.31585201      -0.01293461      -0.65512860
N        8.57791640      -8.63583885       2.70564549      -0.31338621      -0.09429752       0.34593451      -2.55215505       0.93519971       0.93272363
H        7.77963057      -8.33977706       3.28328201       0.04892444       0.12291520       0.17001713       0.62813710      -0.46207256       0.68506458
C        9.59997560      -9.49109929       3.19202600       0.21031701      -0.26950183      -0.45151188      -0.12609637      -1.01801821       0.46624119
H       10.51160724      -9.05931474       2.84939504       0.12869573      -0.10874353       0.23077339       1.07126200       0.02025665      -0.70879015
C        9.72317084      -9.51897399       4.73623471      -0.36589678       0.74871357      -0.06884880      -1.54231852       0.87181134      -1.54398897
H        8.73090813      -9.65347485       5.21171888       0.24736230      -0.15267449       0.01111051       0.79082928      -0.57796649      -0.10517926
H       10.49504838     -10.23048707       4.87778062       0.21698346      -0.13593767       0.18719916       0.32085973      -0.91950788       0.95579735
H       10.07144219      -8.54938907       5.03867626      -0.04675634       0.15546995      -0.16964711       0.28104820       0.56420499       0.23315535
C        9.39380610     -10.93366782       2.60912595      -0.35314424       1.01395686       0.78065389       0.38571800      -0.31449707       0.90779651
O        9.20090509     -11.86293414       3.41584951       0.96866483       1.19030216      -0.20932733      -0.11886177       0.16821500      -0.45771859
N        9.48320559     -11.11076509       1.27936432       0.38025644      -1.03101216       0.24511390      -0.29342526      -1.28362826       0.67347204
H        9.50431942     -10.24838894       0.72879273      -0.01684315      -0.16850850       0.07240468      -0.04199463       0.09664067      -0.24985104
C        9.02537025     -12.40832487       0.67487861       0.40534580       0.49351043      -1.13783366       0.79567277       1.09823875       0.27044797
H        7.96185269     -12.55367662       0.91114621       0.16302297       0.00841454      -0.01262893       0.27889194      -0.08691853       0.01271989
C        9.22744268     -12.24784685      -0.84400290      -0.02983838       0.62647907      -0.25362349       0.17274755       0.38509983       0.33741357
H        8.84390151     -11.26501959      -1.14181778      -0.16859893       0.10930255       0.16018377      -0.84392837      -0.38578492      -0.07876285
H       10.27916672     -12.06223657      -1.08704855       0.01553370      -0.05651289       0.12201099       0.17914076      -0.86255342       0.09644255
H        8.77858171     -13.09648441      -1.37937737      -0.11375591      -0.32864469      -0.06473046       0.31176816       0.47861129      -0.03721957
C        9.80453357     -13.62116150       1.25146414      -0.76716037      -0.24536274      -1.08469179       0.54660136       0.52811616      -0.82525773
O        9.29812989     -14.73822357       1.22965439      -0.18670175      -0.71663932       1.27334265       0.01284853       0.26571264       0.38451992
N       11.12671355     -13.40509833       1.58387897       0.82139492       0.09507617       0.36694527       0.37650042      -0.61507993       1.02288058
H       11.61401088     -12.52246020       1.53561272       0.29549446      -0.19525604      -0.40251954      -0.78404461       0.39220119      -0.24816436
C       11.91496625     -14.40830653       2.33895568      -0.25714339       0.25850463      -0.11313794      -0.50076439       0.19469185       0.56773493
H       11.17147550     -15.22561017       2.44631425       0.42717159      -0.35953248      -0.17717618       0.76673353      -0.02292750       0.09566285
C       13.19542024     -14.72868752       1.57969152      -0.26091237      -0.11951465      -0.53600743      -1.13271351      -1.12985110      -1.10226053
H       12.88200820     -15.04496053       0.54011758       0.09539015       0.16571926      -0.18059444       0.59812524       0.23496056       0.99157689
H       13.71054261     -13.78514130       1.52568168      -0.13663270      -0.04005557      -0.04566543       0.76249919       0.20781099      -0.21300963
H       13.80998213     -15.50955183       2.07046885      -0.01283897       0.01041870       0.08109648      -0.36926992       0.61266077      -0.29961262
C       12.40553609     -13.94686491       3.80441343      -0.28732596      -1.14457271      -0.64360578      -3.76142933       1.42662016      -2.12278442
O       13.43981525     -14.36764474       4.21156946       0.16770451      -0.75989526      -0.86015373       2.52217734      -1.10397575       1.48161020
N       11.59643196     -13.07597000       4.49509018      -0.53098905      -1.01833997      -0.42181273       0.64430273      -0.92882378      -0.65104554
H       10.74790836     -12.71471511       4.04460835      -0.03446954      -0.19378785      -0.26343163       0.09742629      -0.13423236       0.48644564
C       11.98843033     -12.82898863       5.87860767      -0.98609055       0.11508529       0.54518957      -0.37692889       0.90550252      -0.43819834
H       12.10189164     -13.77604806       6.37856147       0.18778763       0.08908561       0.23733415       0.11556652      -0.41994415       0.31160163
H       12.97949819     -12.33139681       5.87108109      -0.34846297       0.09360909       0.18555249      -0.59114495      -0.02516599       0.34441984
H       11.19212767     -12.25193776       6.38990828       0.17004579      -0.12090782       0.00814141       0.63351854      -0.10727060      -0.31523543
