112
Properties=species:S:1:pos:R:3:momenta:R:3:forces:R:3 energy=-496.5789768917127 pbc="F F F"
H      -13.14979619      -9.98805357       3.21028764       0.01034537       0.06690105       0.26547200       0.82168436       0.29961773       0.26490009
C      -12.06556819      -9.71319991       3.30706402      -1.02553634       0.50439933       0.19826364      -0.88751804      -1.40025571       0.17157951
H      -11.80975289      -9.45639548       4.32834414       0.35312444      -0.01606446       0.28276514      -0.18187332      -0.00740961       0.16312617
H      -11.90854956      -8.85929868       2.68547873      -0.03174907       0.15093444       0.15965450       0.27521990       0.50430107      -0.69891552
C      -11.24409535     -10.94485424       2.94262273       0.21413307      -0.84158645      -0.51407097       0.93118317       0.52443839       0.03802946
O      -10.60040949     -11.57654076       3.77473673       0.02084953      -0.12960795      -0.01641869      -0.53226023      -0.07560625       0.90476029
N      -11.15894423     -11.29928254       1.62141596       0.25553492      -0.21871391      -0.62319974      -0.30271010      -0.36739190      -0.33164123
H      -11.03657701     -10.49816033       1.01423342      -0.14723817      -0.05577654      -0.06137475      -0.43830299      -0.07490163      -0.43180739
C      -10.21873775     -12.41358300       1.30084228       0.49407981      -0.43992507      -0.47097664      -0.96175918      -0.11332808       0.27687145
H      -10.22105889     -13.02480196       2.20425426      -0.09301074       0.12221817       0.06696379       0.52114704       0.18082556       0.02681118
C      -10.61750492     -13.29828332       0.12240233      -0.24471746      -0.44196520       0.04181712      -0.53313424       0.86855192      -1.20398851
H       -9.72804124     -13.88717861      -0.11815858      -0.08866262      -0.08078252      -0.01098084      -0.10781795       0.12879850      -0.42230576
H      -11.45041998     -14.01583549       0.21181446       0.06283830      -0.10906207      -0.09350421       0.24582295       0.38451091       0.85869254
H      -10.95647676     -12.65274077      -0.73605500       0.18119205       0.11043736      -0.11588083       0.84836691      -0.58849164       0.51158628
C       -8.94098901     -11.60951669       1.03713812       0.18954060       0.38709678       0.76586659      -0.84910298      -1.61470807       1.66994838
O       -8.89038946     -10.94385979       0.02513380      -0.88608867      -0.64642062      -0.43136065       0.62202631       0.75665192      -1.09515796
N       -8.04821325     -11.59958166       2.06690190      -0.29489818       0.24375278       0.15756497       0.67755930       1.00993022      -1.63950557
H       -8.29127616     -11.94423576       2.97878368      -0.17424117       0.16499936      -0.01310496      -0.13055707      -0.18557193       0.16166583
C       -7.03322104     -10.55412828       1.96685415      -0.57330322      -0.64684936      -0.17320616      -0.21480816       1.29059484      -0.87407598
H       -6.89996364     -10.28408520       0.89635740       0.24738202      -0.13089796       0.21009510      -0.19371073      -0.52272892       0.47165349
C       -7.50505295      -9.29393635       2.69615345       0.42354869       0.20899876       0.01066977       1.35240621       0.27554706       1.89222058
H       -8.38839781      -8.80644117       2.38066233      -0.06498447      -0.13050707      -0.40626020      -1.01907039       0.15720935      -0.99516362
H       -7.70902735      -9.61542231       3.72120364      -0.16953992       0.12397036      -0.07878754      -0.07922513       0.02438658       0.17629998
H       -6.73295999      -8.49653746       2.83018602       0.04548324      -0.14418976      -0.05939251      -0.27700590      -0.67960929      -0.48950212
C       -5.72963522     -10.95758820       2.58480711       0.20681375       0.65157609       0.63453731      -0.63330426      -1.11322788       0.19084263
O       -5.78034003     -11.77711966       3.52346677       0.03888842       0.16135981       1.02069703       1.05416443       0.94634711      -0.49499898
N       -4.62685767     -10.37092871       2.05849862      -0.29261763      -0.01098289      -0.33277861       0.88619092      -0.58314059       1.04106830
H       -4.57314905      -9.83356743       1.21166024      -0.06360681      -0.21594722       0.22527455      -0.49690680       0.14672906      -0.36790010
C       -3.30383605     -10.60064194       2.65090404      -0.07367109       0.26552820       0.60376695      -0.25793246      -0.26602706      -0.15290156
H       -3.41997088     -10.48064106       3.74002851      -0.10677744       0.03069278      -0.43759037       0.32347531       0.03109409      -0.26834733
C       -2.77144960     -12.00173932       2.34893397       0.47366783       0.45537143      -0.06115811      -0.67278911      -0.95992948       0.02569178
H       -2.67106510     -12.24425145       1.26560473      -0.03852569       0.10764739       0.10740361       0.09813520       0.60121763       0.67017350
H       -1.82658959     -12.16677483       2.88388958       0.09162560      -0.00698658      -0.01339396      -0.20111560      -0.08139683      -0.22859197
H       -3.54877981     -12.68105421       2.73587918      -0.11500095      -0.05736940       0.13543772       0.47466130      -0.04394205       0.02561049
C       -2.32499375      -9.65086254       2.01658884      -0.52747794      -0.70640597      -0.03324958       1.07675711       1.40626617       0.11234600
O       -2.37782710      -9.25735241       0.86093416       0.36140931       0.62807242       1.13976956      -1.43469997      -0.27239288      -1.78987645
N       -1.28560554      -9.20917316       2.72311235       0.51523976       0.74898027       0.50796646       2.02295052       0.10192238       2.70265300
H       -1.04859330      -9.49720994       3.68312815      -0.08594081      -0.05178738      -0.15019226      -0.63819950      -0.08616902      -0.25680423
C       -0.11405020      -8.41661128       2.22996188       0.59389041      -0.40833160      -0.31718980      -1.02210157      -1.32956777      -0.22317650
H        0.20663051      -8.95152334       1.31548054       0.27938270      -0.11447747      -0.13851083       0.05801216       0.67745674       0.04013102
C       -0.48793340      -6.94695624       2.03672050      -0.61977110       0.53308423       0.33199426      -1.84515170      -0.49865976      -0.89038717
H       -1.45401462      -6.83025926       1.40874211      -0.01116050      -0.03187852      -0.19176703       1.37444108      -0.47271356       1.24611134
H       -0.60701196      -6.50804474       3.02746351       0.07219795       0.34482531      -0.08713462      -0.08219461       0.28189576      -0.16308419
H        0.24339870      -6.44233595       1.45077850      -0.26471695       0.11302411      -0.08812794       0.90547103       0.56698317      -0.16508925
C        0.98106597      -8.56179692       3.32624619      -0.26800330      -0.09768511      -0.16079903      -0.60194095      -0.28862513       0.32008713
O        0.73118069      -8.94263936       4.47132085      -0.61163782      -0.33079751      -0.42452551      -0.86188971      -0.11476101       0.33364417
N        2.20839703      -8.18664535       3.00311369      -0.47251972      -0.00891017      -1.06429046       0.07411999      -0.08410377      -1.08566958
H        2.36333429      -7.92284339       2.01747095       0.04341019       0.00397134       0.09220976       0.52846439       0.16953653       1.06855980
C        3.22851241      -7.93553144       4.02774509       0.34001032       0.34980217      -0.87214050      -0.61739631       0.19827201       0.19307763
H        2.72380591      -7.32193576       4.81043701       0.08379645      -0.15274823       0.03485265       0.31435195      -0.18312649      -0.38225345
C        3.76793970      -9.18574726       4.73398368      -0.10568934       0.14622361      -0.01452899      -1.45612106      -1.31873422      -0.48517308
H        3.73451434     -10.11198357       4.10163420      -0.21529712      -0.10324945      -0.27335200       0.00129112       0.95345333       0.32497972
H        4.73932962      -9.12113718       5.12647044      -0.10924863       0.20204767      -0.09389522       1.65985554       0.52072614       0.10118257
H        3.17960221      -9.39260883       5.62732141      -0.05035082       0.19318548      -0.08164434      -0.40203905      -0.07329750      -0.21696817
C        4.23669642      -7.06451833       3.30406053      -0.71399156      -0.07753071       0.93700049       0.74756007      -0.69756014       1.00035075
O        3.98586017      -6.69986074       2.18113283       0.00833562       0.60297010      -0.07454514      -0.13781306       1.04076974      -1.99324303
N        5.39714022      -6.73709684       3.91280752      -0.49924004       0.29057703      -0.85642226       1.02992355       0.55875561      -1.64254807
H        5.71242745      -7.22739948       4.72595187       0.07335485       0.15360419       0.04832603       0.06560674      -0.25794765       0.22849900
C        6.48439738      -6.08429691       3.06894783       0.42440634       0.01625311       0.41312783       0.29445910       1.36826854       1.30980518
H        6.34240375      -6.16126003       1.96510704      -0.08675650       0.07916882       0.13258610      -0.37192222      -0.58481918       0.95852569
C        6.44673539      -4.55858724       3.41114837       0.48104947      -0.12125532      -0.17951961      -0.42677682      -0.50817598      -0.13205049
H        5.43212136      -4.21678423       3.27184336      -0.21727914       0.11697075       0.10082506      -0.43512154       0.05205921      -0.48251921
H        6.58657783      -4.35597717       4.46466687       0.08069871      -0.20251391       0.15750901       0.55144358      -0.18387897       0.37585821
H        7.08779956      -3.90967978       2.81454926      -0.08726941      -0.30688627      -0.15073413       0.21455374      -0.23400480      -0.05817545
C        7.81963016      -6.79748504       3.45714975      -0.45409112       0.40146067       0.52032414      -1.55314592       1.06096016       0.41379104
O        7.85830146      -7.99684789       3.47265964       0.52656506      -0.43537701       1.45872626      -0.02979051      -3.02413581      -0.61759949
N        8.82225663      -6.08733376       3.95006565       0.36237957       0.26721069       0.35033563      -0.31916173       2.61251614      -0.38639805
H        8.79412018      -5.06486655       3.98620506       0.03826999      -0.33588901      -0.14432874      -0.30062328      -0.10309553      -0.18698556
C       10.15053446      -6.49943406       4.09974820      -0.23057837       0.59053360       0.98630645       2.55773527       0.90965136       1.06053731
H       10.22621560      -7.40256421       4.68982556       0.04404765       0.00027052      -0.10166908       0.02677012      -0.34039435       0.14862451
C       10.91412998      -6.66305615       2.76141622       0.28397682      -0.34794859       0.20953214       0.16794893      -0.95701114       1.06692024
H       11.95827567      -6.99916240       2.88244213      -0.02251240       0.08353141       0.30174227      -0.47643927      -0.20276021       0.24687339
H       10.33321409      -7.40988077       2.25225969       0.09404765      -0.09923342       0.10602617       0.04047394      -0.35728202      -0.76263619
H       10.99274261      -5.75787252       2.21533159      -0.00460422      -0.10302359      -0.05790044      -0.40100271       0.99680685      -0.54806492
C       10.84563237      -5.25474342       4.83551811       0.34742294       0.33346536      -0.03342087      -0.23026903      -0.62060057      -1.43190811
O       10.39805695      -4.13778161       4.57266738      -0.75033299      -0.20232579      -0.60777757      -0.05057116       0.21563306       0.72502563
N       12.00217031      -5.48217465       5.48875779      -0.42150296      -0.60386131      -0.45183629      -1.10483821      -0.42119119      -0.18865406
H       12.47321075      -6.33007858       5.25307458       0.20028850      -0.05784584      -0.13208174       0.38697952      -0.92038298       0.13850968
C       12.89776619      -4.45776393       5.86150253       0.40586704       0.20933381      -0.46061915      -0.00769572       2.72692119       0.10631863
H       12.75720929      -3.57594261       5.14630191      -0.23098480      -0.07917327       0.16640939       0.65523926      -1.31338647       0.17461544
C       12.59263365      -3.74992091       7.21414807       0.40296228      -0.62086157       0.29654711      -1.00039707       0.40130438       0.76428689
H       11.64116139      -4.19295489       7.64525157      -0.00995710       0.22640961      -0.30187345       1.03638535       0.76312277      -0.44753449
H       13.40258976      -3.91578020       7.93260525      -0.09678060      -0.07509531      -0.06961479      -0.23879698      -0.09853153       0.00250145
H       12.49922073      -2.61630585       7.10955810       0.01413966       0.13300884      -0.03517338      -0.12766495      -1.56017339       0.03885776
C       14.30232365      -5.05187386       5.87283590       0.26557703       0.88910153       0.11076950      -0.92121893       1.50508968      -0.37185077
O       14.53603202      -6.15816872       5.45562182       0.99319912       0.53203299       0.29108059      -0.28501247      -2.63166134      -0.74717746
N       15.27445681      -4.28759869       6.34288292       0.01817635      -0.23086247       0.35037479       1.97596052      -0.38707971      -0.19000235
H       15.14755300      -3.28771950       6.41348166      -0.28382458       0.14272495      -0.04410762       0.52316111       0.07030989       0.20961628
C       16.65708946      -4.87443141       6.24933988       0.58079773      -0.37069984      -0.61962431       0.75279178       1.04271063       0.55389680
H       16.70674976      -5.81631962       6.80346580       0.26027315      -0.03400805      -0.04225184      -0.49937271       0.02954637      -0.10377519
C       17.28110283      -5.09412645       4.82592050      -0.97466553       0.43052673      -0.07438202      -0.57782723       0.27580289       1.09469210
H       17.81119881      -4.18665852       4.53403880      -0.11716973      -0.06111094       0.21004410      -0.71904039       0.22444931      -0.60178175
H       18.10108169      -5.78524008       4.94528578       0.03973927      -0.16283972       0.28140650       0.02976186      -0.69108934       0.02108556
H       16.49359096      -5.49974839       4.18641077       0.10901217       0.12073888      -0.00010855       0.46570821       0.28196100      -0.30092912
C       17.58958744      -3.84709729       6.92009838      -0.64719991       0.40003543      -0.08237731       0.23305643       0.40418313      -0.32338354
O       17.26865286      -2.65895789       6.86436420      -0.79636163      -0.36810636       0.21695750       0.31674111       0.16804980       0.47714818
N       18.81516408      -4.29112697       7.34294826       0.14859607      -1.66758090       0.03031575      -1.39182598      -0.10172945      -0.09206166
H       18.93529135      -5.28262954       7.47241520       0.07282040       0.05491089      -0.12832438       0.13056988      -0.36341745      -0.13750213
C       19.81881697      -3.53583329       8.05155419       1.32030884      -0.62423789       0.72173815      -1.58171669       2.05536239      -0.46695803
H       19.94678749      -2.51828136       7.52848070      -0.13955458      -0.24170730      -0.15066694      -0.16681254      -1.35008039       0.54101442
C       19.37275596      -3.21447471       9.50901867      -1.44519379       0.14264956       0.27328014       1.16245209      -0.49483454       1.78238446
H       18.40833775      -2.70238187       9.59546188      -0.29782741       0.10831003      -0.03814563       0.48116358       0.51288232      -0.49731478
H       19.18805518      -4.09314306      10.16494142       0.22337069       0.06773173      -0.21065245       0.23173190      -0.26435790      -0.90788954
H       20.21205291      -2.72742138      10.12450695       0.24673091       0.06436706      -0.06208364      -1.25211729      -0.00987347      -1.14099854
C       21.07746092      -4.33995146       7.96933485       1.13526014      -0.82995933      -0.03732155      -0.41468083      -0.32728892       0.63472145
O       21.03828076      -5.56520198       7.80369666      -0.21011783       0.70639582      -0.29092706       0.67384971       0.65660408       0.13290325
N       22.14383955      -3.56681871       8.23965855       0.33695864      -0.19296043      -1.16569543       0.23496952      -0.22045751       0.07203128
H       21.98101556      -2.57539724       8.32520236      -0.07505053      -0.13000179      -0.07430327       0.03294675      -0.08752965       0.09384599
C       23.40725438      -4.10059700       8.59504533       1.83533902       0.33555459      -0.51293893       0.94939252      -1.75033471       1.17253290
H       24.19816333      -3.42897261       8.40975767      -0.09644275       0.15838998      -0.27357324       0.78907850       1.07607044      -0.38910999
H       23.55847974      -4.43389449       9.66915438      -0.20566098       0.14626056      -0.38337022      -0.73784858       0.50025489      -0.81304287
H       23.62584309      -4.99863845       8.02004988      -0.03142227       0.08920243       0.08882532      -0.21402997      -0.05242573      -0.21469729
