112
Properties=species:S:1:pos:R:3:momenta:R:3:forces:R:3 energy=-497.05712634263085 pbc="F F F"
H       -5.67683893     -11.67165756      -5.39586546      -0.05045328      -0.13791914       0.36791042      -0.23277114       0.40409867      -0.32750969
C       -6.15137461     -10.82715103      -4.86177598       0.80470362      -0.38788900      -0.21895466      -0.09140880      -0.70873993      -1.45436621
H       -6.63188720     -10.12352820      -5.59114878      -0.03664369       0.33727024       0.15460638       0.94302438      -0.34002736       0.75563072
H       -5.30772187     -10.44871561      -4.28155912      -0.11591248       0.36958486      -0.29474882      -0.47517468       0.61010688       0.22953012
C       -7.26600964     -11.40594299      -4.04810971       0.06011555       0.21660110      -0.17927799       0.43796726      -0.45449743       1.04214737
O       -8.23702797     -10.77001204      -3.69572211       0.99564916       0.20005648       1.57873682      -0.93964087       0.57319149       0.05641344
N       -7.07743898     -12.71371549      -3.66114020      -0.16004468       0.88827881       0.20809042       1.53091779       0.72239101      -0.72187747
H       -6.16527655     -13.06186005      -3.89673726       0.23981549      -0.20418658       0.05021846       0.14118259      -0.44964054      -0.07979891
C       -7.85815699     -13.42965367      -2.71781405      -0.44782407       0.20765647      -1.18336047      -0.26321268       0.65520129       0.36004589
H       -8.73482755     -12.79042051      -2.67941587      -0.05911062      -0.12929669       0.05889556      -0.60268176      -0.07468063       0.53651603
C       -8.21460627     -14.79751641      -3.26722199      -0.27862994      -0.48231317      -1.14516792       2.05228278      -0.52646661       0.55849082
H       -8.65482293     -15.35857731      -2.47761259      -0.00664217       0.03479418       0.24453823      -1.02548313      -0.43995827       0.42314901
H       -8.78960853     -14.71653625      -4.17301292       0.05114555      -0.25014914       0.05778589      -0.26492580      -0.12468915      -0.22324089
H       -7.26208217     -15.38473786      -3.43702040       0.22361759      -0.26103390      -0.10192621      -0.77255163       0.66937833      -0.29841987
C       -7.25112626     -13.52122362      -1.26111157       0.55280123       0.23361869       0.42185414       0.28689371      -0.03104364      -1.37205242
O       -7.78708630     -14.28611635      -0.47857598      -0.34483187      -0.95217257      -0.15856447       0.10249216      -0.19797719       0.72488985
N       -6.08534412     -12.84042459      -1.03991189       1.17090306       0.34951502       0.24954345      -1.90427591      -1.60952038       1.45385986
H       -5.80137099     -12.14222229      -1.67245509      -0.11941657       0.06742539      -0.00209315       0.61541795       0.86604492      -0.77271684
C       -5.21045640     -13.09622857       0.11755514      -0.07234299      -0.62931087      -0.30843859       0.38565229       0.47753843      -1.84415124
H       -5.67489408     -13.11798113       1.07370882       0.08279690      -0.13688049       0.02481381      -1.10920170      -0.64011620       0.58464498
C       -4.39655163     -14.33610858      -0.25097734       0.50727509      -0.94017628      -0.06080769      -0.85287450      -1.28608834      -0.62266136
H       -5.16187638     -15.20151995      -0.31086255       0.17809048      -0.20145140      -0.04638533       1.25818088       1.26418695      -0.36243134
H       -3.87419782     -14.12323740      -1.23830833      -0.24700375      -0.01520695       0.09172023      -0.70148255      -0.52540932       1.17343019
H       -3.67653927     -14.66335104       0.49252043      -0.00659460       0.05196202       0.01876066       0.25217600       0.28703548       0.21965062
C       -4.34534994     -11.88271724       0.15331916       0.70563313      -0.36111506      -0.38444113       0.87235630      -0.20011210       1.11114207
O       -4.03403555     -11.28766431      -0.86625286      -0.59564683       1.19780565       0.56946848       0.11847454       0.62348445      -1.02212960
N       -3.86139250     -11.52073397       1.36534728      -0.62093603       0.42114065      -0.55166392       0.85966160       1.43867723       0.13050162
H       -3.98664850     -11.97361836       2.26844129      -0.10211463       0.08382690       0.26655551      -0.17620734      -0.30359330      -0.64834263
C       -2.91517386     -10.37622686       1.42461648      -0.10796473       0.43948558      -0.82922377       0.60113630      -1.23105369       0.53453181
H       -2.73595645     -10.06493768       0.37231516       0.09691384       0.08748672      -0.15714092      -0.06962135      -0.15226111       0.72620915
C       -3.51793838      -9.24172432       2.27390282      -0.68782017      -0.57241567      -0.22746537       0.29258432       0.70642552      -1.30660199
H       -3.75423947      -9.56581038       3.28264769      -0.00637687       0.18366113       0.18366987       0.10807666       0.04767293       0.14730245
H       -2.83914473      -8.35304548       2.25624508      -0.16191819       0.08088454      -0.08313418      -0.40453641      -0.70094490       0.35691734
H       -4.43901540      -8.91189955       1.75540921       0.14149268      -0.04796341      -0.29697184       0.26538227      -0.19685379       0.39538254
C       -1.57289518     -10.94702147       2.09709434       0.14538419      -1.08248136       0.13718854      -1.68889961      -0.56556756       1.25023766
O       -1.58724424     -11.93638655       2.86932003       0.68976521      -0.10905051      -0.01439081      -0.23245124       0.98147049      -1.31109266
N       -0.50267880     -10.17596005       1.95603887       0.34980703      -0.32896554       0.90083248       0.39848177       0.10543858      -0.90880507
H       -0.52034868      -9.31540392       1.42199438      -0.26719680      -0.21339532       0.19141814       0.10376269      -0.01418380      -0.07280298
C        0.74589853     -10.47265538       2.59416207       0.31440983      -0.78546857      -0.83942261      -0.71109613      -1.26479700       1.42384049
H        0.51100376     -10.87213439       3.56879623       0.11799991       0.08465835      -0.05355194      -0.51565676      -0.17009560       0.68258331
C        1.60004665     -11.55394292       1.96678398      -0.12359653      -0.08078700       0.49987924       1.11056777      -0.04120275      -2.49677278
H        2.57576987     -11.69011167       2.46846046       0.04289644       0.24899432      -0.16314452      -0.36684094       0.37850496      -0.07205501
H        1.19356553     -12.58544086       1.88988749       0.09339896       0.18935938       0.10672538      -0.40788459       0.92146027       0.24277838
H        1.81297309     -11.19016731       0.90382286       0.06817780       0.21600120      -0.14769409       0.01965588      -0.70365550       1.15471958
C        1.44128078      -9.18250602       2.82922795      -0.16094551      -0.00865709      -0.05792192      -0.31235997       1.90731409      -3.63627619
O        1.21216298      -8.23397843       2.01781422      -0.69559225       0.11248762       0.65396047       0.37552853      -0.79452644       1.84686922
N        2.35618989      -9.20854407       3.77317946      -0.47376851      -0.39794704      -0.70878072      -0.00465432      -0.60428600       0.11679326
H        2.45518152     -10.13707795       4.15403256       0.07166257       0.29102131       0.12159774       0.58563172       0.27431364       0.84836535
C        3.07341337      -8.06443317       4.23576250      -0.48887261       1.56248529       0.73012013       0.01831339      -0.20055101       2.01392300
H        3.12565174      -7.34845034       3.44561926      -0.12995088      -0.25120271       0.03789160      -0.05287588       0.42976905      -0.67118717
C        2.27453160      -7.44873025       5.43021164      -0.29585193       0.04019696       0.61224037      -0.99306807       0.18589281       0.08567096
H        2.07949175      -8.19996726       6.26227149       0.21324696      -0.19536218      -0.15689723       0.58871763       0.96508439      -0.97255132
H        2.65127902      -6.46769638       5.80668649       0.17629664       0.00388296       0.05274075       0.20661751      -0.94138065      -0.11029282
H        1.27504096      -7.18242319       5.00524568      -0.05822265       0.28014626      -0.28241696       0.55735272      -0.31644377       0.29948437
C        4.48038388      -8.49817121       4.65426947       0.53493962      -0.52768290      -0.51075975       0.40238843       2.81099091      -2.37555702
O        4.74030263      -9.47940437       5.29071861      -1.45354012       0.28676232      -0.18849396       0.24478126      -1.48296943       1.23197784
N        5.44232645      -7.63203635       4.13325305      -0.15419284      -0.68647086      -0.64062033      -0.91410950      -2.09220558       2.16803407
H        5.28136275      -6.87474690       3.56449346      -0.33659918      -0.10656479       0.01492838      -1.24767537       1.94690023      -1.59322513
C        6.80618466      -7.69053559       4.49125961       0.17481570      -0.55227512       0.21220886       1.49406710      -1.78552590      -0.19480487
H        6.88385138      -8.19243478       5.47638340       0.13889204      -0.16533272      -0.12815808       0.03232891       0.35169287      -0.33054997
C        7.52095836      -8.63241664       3.45476014      -0.23283035      -0.84681483       0.37463097       0.51364413      -0.76772519       0.36321443
H        8.62075913      -8.67070978       3.50248911      -0.09516627      -0.18942951      -0.01774889      -0.18335465       0.37542287       0.42393376
H        7.21042909      -9.68712572       3.70391482      -0.30081280       0.08596888       0.17019511      -0.04380103       1.05341024      -0.54973460
H        7.31312710      -8.36927456       2.40472122      -0.30105456       0.00769454       0.18110695      -0.37239890      -0.05536990       0.49873665
C        7.37399347      -6.28570013       4.52892912       0.66050760       0.14918915      -0.17052676      -0.72311170       0.62851377      -1.70424998
O        7.23439183      -5.46614796       3.60981321      -0.68269774       0.00586428       0.77605485      -0.36995543      -0.59772134      -0.33854768
N        7.98861729      -5.96026832       5.63290232       0.30316599      -0.12005187       0.50231242       1.04504556       0.24193626       1.73401984
H        8.16115713      -6.64868778       6.32472044       0.06958879       0.13641758      -0.07732356       0.08104695      -0.96323205       0.70521099
C        8.79133630      -4.80255773       5.87349498      -0.04788102       0.59368264      -0.31088067       0.49952449       0.64032829       0.67862586
H        9.11726597      -4.37358583       4.91770441      -0.11918512       0.03679494      -0.08057546      -0.55175658       0.26784250       0.12486862
C        8.07830551      -3.81697670       6.87573463      -0.89598210       0.23787279       0.29326427      -0.39513281      -0.11658800      -2.09276700
H        8.64384555      -2.91224927       7.04174435      -0.20522280       0.00457234       0.30571196       0.14289433       0.40286368      -0.32544561
H        7.05019349      -3.60168303       6.48595123      -0.05249548       0.13432041       0.08159845       0.89015183      -0.06492830       0.46869605
H        8.05108086      -4.29608631       7.81768523       0.07085717       0.16985106      -0.00109094      -0.41852030      -0.70253490       1.05702186
C       10.07069386      -5.28655151       6.58614404      -0.31575035       0.78947015      -0.69923422       0.75963191       1.13810403      -0.40152070
O       10.18678275      -6.33013382       7.19525923       0.06766162      -0.81658764       0.52365891      -0.73509025      -1.28446114       0.59808935
N       11.09223675      -4.39557196       6.55130946      -0.52431503       1.31565017      -0.08840127      -0.25042549      -1.39619239       0.96290407
H       11.06386687      -3.68062816       5.88255467       0.34593768       0.00948560      -0.14650102       0.25957548       1.38492067      -0.89263418
C       12.38280325      -4.69323629       7.16727122      -0.75623841      -0.49539602      -0.21099747      -0.32468396       2.27542894      -0.74317362
H       12.26956706      -4.90988233       8.18988363      -0.03060716       0.15420243       0.12883809      -0.61280200      -0.40298727       1.49188539
C       13.12517668      -5.78397113       6.51455856       0.72150775       0.63328964      -0.10679151       1.25695300      -2.36369415       0.30165209
H       12.88951049      -6.85249599       6.79023847       0.03321163       0.32179326      -0.28358348      -0.58437812       1.27283726      -0.08443453
H       13.09583349      -5.71826200       5.46199402      -0.28777464      -0.13952595       0.07936308      -0.17389164       0.16195139      -1.34483001
H       14.17501964      -5.75944712       6.76844401       0.04641205       0.10857301      -0.07902997       0.57278304       0.40385380       0.20282049
C       13.14374079      -3.29981562       7.13265265       0.29456605       0.14815904       0.15459501      -0.63071386      -1.13953097      -1.39132927
O       12.93381175      -2.46624038       6.24501794       0.31466327       0.21952915       0.91846544      -0.30287123      -0.23057768       0.32977669
N       14.06700828      -3.14025775       8.07344541      -0.13462033       0.57660262       0.34643889       0.20501549       0.86182590       0.32524807
H       14.20907203      -3.83356651       8.78910001      -0.00053519       0.13249155      -0.06770894       0.18612938      -0.00211292       0.13466569
C       14.68636114      -1.83346518       8.22636986       0.23752232      -0.68270672       0.17823884       1.17785108      -0.11582199       0.64540175
H       14.72413278      -1.33384272       7.26027026       0.07274137      -0.20198758       0.16382484       0.33450646      -0.40983807      -0.32176487
C       13.85454782      -0.91145979       9.09487348       0.44894059       0.20018344      -0.35727356      -1.94635347      -0.73929649       1.08890879
H       14.11560480       0.14206190       9.14389998      -0.02306220      -0.04562282      -0.16502062       0.34069835       0.01702969      -0.31209925
H       12.83998350      -1.00333682       8.64680101      -0.00893682       0.13013534       0.24770616       0.41519187       0.46179244       0.36360274
H       13.74704127      -1.26807989      10.15413299      -0.21471794       0.24370391       0.00637425       0.31560235       0.15851326      -0.83839852
C       16.07307450      -2.06632570       8.85190986       0.06482658      -0.25750326       0.99783869       0.04582237       1.09461784       0.01112888
O       16.47255576      -3.14015221       9.25854476       0.45540096      -1.21735818      -0.04765621      -0.12288646      -1.38594389       0.07728050
N       16.86206129      -0.96878228       9.02372102       1.01831264      -0.27638739      -0.92787101      -1.56080261       1.45948721      -0.46868441
H       16.43160210      -0.03039091       9.04945912      -0.08016977      -0.16005534       0.07441502      -0.03341454      -0.90054475      -0.41765945
C       17.98238872      -0.99566474       9.89072916       1.22821332       1.31857343       0.59699205       3.27338374       0.30649605      -2.20803991
H       18.74928460      -1.70977944       9.51716721       0.16606806      -0.12149700      -0.21256422      -0.72210187      -0.13803087       0.19007686
C       18.70697461       0.34252025       9.77807729      -0.14956296       0.10959651       0.39681756       1.11146420       0.17448645      -0.23231216
H       19.02991210       0.62858094       8.76002015       0.08588947      -0.07514194      -0.13421268      -0.06501111      -0.67300050       0.25768426
H       18.09334760       1.14904397      10.08574955      -0.10541805      -0.05304355       0.27015778      -0.87311331       0.79366824       0.65190150
H       19.58860172       0.34689630      10.43844264      -0.04421130      -0.14621981       0.06877929      -0.22238912      -0.02237045      -0.25570935
C       17.64362541      -1.24774355      11.27809383      -0.21955911       0.54280584      -0.62232538      -1.33898882      -1.60659985       2.20288862
O       16.89430622      -0.49495787      11.88235021      -0.08388806       0.42465902      -0.47581943      -0.19956268       0.75647810       0.55024420
N       18.08558601      -2.43477833      11.79461095      -0.33795185       0.25954296      -0.60164754       0.41811977       0.36217133       0.11616141
H       18.34609734      -3.09471315      11.10548183      -0.09485532      -0.09453110      -0.18734666       0.50518171      -0.48931332      -0.82170748
C       17.67948963      -3.06063300      13.02886189      -0.31779052      -1.04711287      -0.50180839      -0.08147078       1.11941194       1.73333702
H       17.07136029      -3.92445762      12.78430496      -0.19093191      -0.02500020       0.01998430      -0.09133869      -0.28286603       0.18949939
H       18.54601080      -3.35949162      13.71287213      -0.06542811       0.02124220       0.19952319      -0.92605019       0.33650653      -1.11749123
H       17.05287507      -2.32857517      13.61887499       0.13757006       0.22412934      -0.17982760       0.57772161      -0.73181727      -0.70034194
