112
Properties=species:S:1:pos:R:3:momenta:R:3:forces:R:3 energy=-497.69741346078354 pbc="F F F"
H        4.40638427       1.33504865      -3.54677523      -0.22628903       0.03484894       0.04104995      -0.32536881       0.85002882       0.03947137
C        4.57111007       0.30182366      -3.34717300       0.42123986      -2.40167230      -0.87152246      -0.35385484      -2.11424390      -0.47275708
H        5.60878558       0.06908876      -3.52323478       0.13849197       0.03156824      -0.19103319       0.39175229      -0.02771850       0.09530704
H        4.00331318      -0.31018455      -4.11574720       0.03482230      -0.19494504       0.01339127       0.42309724       0.71106470       0.75929099
C        4.17074936      -0.17387436      -1.95440285      -1.13184527       0.31150337      -0.73998621       0.24096454       0.30741145       0.21122525
O        4.88074514      -0.86471387      -1.20382562       0.01817820      -0.00030871       0.53579753      -0.61430160       0.32069798      -0.74706290
N        2.92666443       0.25184285      -1.56494398       0.23354124      -0.25762966       1.13260091       1.04953323      -0.61489789      -0.48226178
H        2.44005601       0.84166122      -2.20037546       0.33552682      -0.00315835      -0.22222085      -0.51088135       0.47142552      -0.22772700
C        2.48126062       0.04926763      -0.22577477       0.59633766       0.41862923      -0.00674109       0.33606415       0.35109373       1.21022102
H        3.40091392       0.22547650       0.46740923      -0.11178289       0.14228269      -0.09824132      -1.51638241      -0.37213937      -0.97512638
C        1.35494944       1.05737820       0.14950971      -0.20270718      -0.05283014       0.57807482      -0.22256190      -1.99504817       0.19482856
H        0.39060518       0.82021483      -0.36535746      -0.12715451      -0.09972444       0.19450471       0.81646676       0.36424987       0.24080996
H        1.19670015       0.98924769       1.22365131       0.13315069      -0.22496175       0.06028364      -0.16936616      -0.16933428       0.02920768
H        1.71877028       2.02771845      -0.03000592       0.19872291       0.12233274       0.07749640       0.19166395       1.38934600      -0.55740089
C        2.02188115      -1.38185240       0.07787127       0.42596050       0.12662008      -0.31607162       0.16674835       0.69063939      -0.61571658
O        1.84428362      -1.63950313       1.25753477       0.24303402       0.32380658       0.55690303      -0.30648053      -0.70719520       0.53195580
N        1.81152391      -2.30154940      -0.94598626       0.35184044      -0.77613496       0.02414784       1.34407890       2.75563234       1.05699628
H        2.17566677      -2.04956855      -1.85399372      -0.34464690      -0.23072524      -0.07183117      -0.05391879      -0.21959049      -0.03487250
C        1.58675515      -3.61243069      -0.52381323       0.23266519       0.60389330       0.10597124      -0.64253299      -2.45050858      -0.62647420
H        0.75028703      -3.55875294       0.10998831       0.13254475      -0.06336331      -0.33778346      -1.40940271      -0.15735821       0.97898161
C        1.24969780      -4.47740509      -1.73984294       0.49650741       0.08219238      -0.11333492       0.68450079      -0.65387970      -0.17673295
H        2.03476099      -4.32245367      -2.45888197      -0.02795640       0.07202428       0.26690882       0.77580969      -0.17240062      -0.43806920
H        1.14655837      -5.57091236      -1.62200842      -0.10293675       0.16574516       0.04741008       0.14950554       0.64177087       0.56143201
H        0.39776314      -4.14044814      -2.27729040      -0.00267880       0.01329988       0.40583994      -1.15765902       0.49191685      -0.06695052
C        2.61073423      -4.33190886       0.37905561      -0.12104379       0.52344251      -0.73511685       0.30762183       2.79934890      -2.60500486
O        2.30271267      -5.33626488       0.92456153      -0.73896038      -0.03120739      -0.38525224      -0.88478140      -3.27290104       1.84109165
N        3.80564169      -3.73850441       0.41771586      -0.09138176      -0.15880091       0.33698471      -0.01974960       1.52429599      -1.46373803
H        3.91343696      -2.90526830      -0.17569728      -0.00481660       0.01526459      -0.02007252       0.11849577      -0.46565185       0.41239949
C        4.93811805      -4.19608302       1.10446478       0.21305382       0.21622964      -0.11850389       2.75691345      -0.39789118      -0.09576430
H        5.33229336      -5.13473040       0.68727047      -0.12373943      -0.00859597      -0.14878916       0.26666130       0.32856145      -0.50902902
C        6.00703740      -3.04256057       1.15921850       0.53475376       0.41847873      -1.08904193      -0.20636569       0.57637200      -0.41224036
H        5.63500417      -2.18962930       1.77728891      -0.13617823       0.14770629      -0.45032580       0.05170703      -0.72858186      -0.30003917
H        6.99409478      -3.32073720       1.55596869       0.01252292       0.24355362      -0.05167100      -0.51120576      -0.33570910      -0.08173348
H        6.15784773      -2.60533730       0.14911286       0.20269404       0.18629596       0.08378940      -0.07174736      -0.42421788       0.43029458
C        4.65007286      -4.60292605       2.49269373       0.32157995      -0.95894308       0.97254048      -1.92163678       1.23388954       1.55728974
O        5.22517201      -5.45742677       3.15196117       0.43356506      -0.79745807      -1.43553791       0.84774378      -0.58525705      -0.17631574
N        3.63610137      -3.86461511       3.00082338      -0.47055954      -0.99357078      -0.73458460      -0.68766889       0.82504095       0.31015825
H        3.17357747      -3.20856919       2.34851322      -0.11464290       0.04034132      -0.12095913       0.26160145      -0.37732613       0.82747805
C        3.11230201      -3.98573242       4.37296225       0.45336193       0.14891673       0.22311461       1.72194333       1.10112322       0.14050011
H        3.89852110      -3.60390545       5.09472903       0.01583715      -0.11745732       0.01808611      -0.75901465      -0.11592172      -0.73957329
C        1.80517824      -3.18094683       4.54591808      -0.50538551      -0.07003226       0.12350538       1.66419570       0.02825063      -0.43839677
H        1.02670609      -3.56462576       3.91413061      -0.25037105      -0.10355051       0.27368858      -0.66995752      -0.35470547       0.14970336
H        1.64595456      -3.16267887       5.60285049      -0.07885992      -0.15697595       0.17187484      -0.88176882      -0.23521771       0.58282188
H        1.94952138      -2.14042011       4.25103445       0.12926668      -0.07669177      -0.21631542       0.25449939       0.02005327      -0.13993306
C        3.04222940      -5.45079343       4.72986658       0.05858619       0.44088099       0.27823537      -0.68540615      -0.74559198       1.02214013
O        3.71225733      -5.97049471       5.64559023      -0.04578973       0.93827626       1.18356337      -0.82838489       0.44577789      -0.90773681
N        2.06995880      -6.11675042       4.04130557       0.33071268      -0.44900065      -0.06729049       1.75925102      -1.12832126       1.46945297
H        1.64011065      -5.71075303       3.25295562      -0.03006860      -0.49232689       0.07121993      -0.28753095       0.58433751      -1.01504518
C        1.86981162      -7.55112361       4.23751945      -0.42090805       0.19729361      -0.44553317       0.19884276      -0.20737225      -0.81275303
H        1.33573215      -7.67926661       5.18985737      -0.10372850      -0.07460561      -0.12945027       0.33279059      -0.36935854      -0.15613923
C        0.97009130      -7.99150810       3.08258243      -0.25800990      -0.09034296      -0.16129129      -0.51739820      -2.08870473       0.28511019
H        1.26752490      -7.75290960       2.06181612       0.09050028      -0.22451466      -0.40916754       0.48898656       0.39630266       0.23021302
H        0.82487911      -9.11109424       3.09541031      -0.19367912      -0.13661154      -0.09298793       0.18112118       1.06789017       0.17669867
H        0.00893127      -7.56698660       3.28073255       0.04354062      -0.46577224       0.11787982      -0.85398825       0.33092961      -0.17305577
C        3.11922818      -8.49577367       4.20115836       0.16408493      -0.36986173       0.64584565      -0.19889041      -0.08646804      -0.00297965
O        3.05837593      -9.63525552       4.70352282       0.74208606       0.32972431       0.11085721      -0.01615556       1.02860776       0.02697804
N        4.17796289      -8.08263004       3.47180355       0.85272454       0.17837333      -0.43018068       0.13004280      -0.29809095       0.09182559
H        4.16667886      -7.15733284       3.01042470      -0.40114237      -0.20958423       0.13282290       0.24700672      -0.76074991       0.60587544
C        5.35042671      -8.99723802       3.26610859       0.04302366       0.12028646       0.36417220      -0.97708152       3.11912501       0.25660344
H        4.95034030      -9.96251552       3.22756046       0.22534329      -0.01163963       0.13544245      -0.47784453      -1.64255544      -0.58730093
C        6.11497421      -8.45929668       2.08562730      -1.58687540       1.23027787       0.02276939      -0.45886583      -2.60143289      -1.29153253
H        6.45136945      -7.50553196       2.31544238       0.03252775       0.28090574      -0.08515834       0.81778199       1.82984317       0.41592135
H        6.94894610      -9.17407623       2.03612898       0.15857137       0.18992437      -0.24406027       0.08226080       0.50737417      -0.72596138
H        5.52994716      -8.40123530       1.13100613      -0.05564914       0.00138182       0.01356532       0.44058452      -0.36908940       0.80911128
C        6.35671836      -9.03359324       4.41072494      -0.48204916      -0.49974233      -0.89726134      -2.71470371       2.55138868       0.19708467
O        7.21013980      -9.86256157       4.41014110      -0.58260119      -0.46249220      -0.44297229       2.30302556      -2.57659638       0.18914278
N        6.20430777      -8.08971263       5.37119656       0.12520909       0.53238547      -0.27996266       2.21881082      -1.16271403       1.38828913
H        5.49944974      -7.41400124       5.28288735      -0.14089060      -0.27649850       0.14811407      -1.15836061       1.23192378       0.05170996
C        7.06055260      -8.25608494       6.60545416      -0.27601577      -0.18974089      -1.12632908      -0.06621727      -0.18662857      -0.91643009
H        8.07901155      -8.58804425       6.23833057      -0.16176729       0.09550755       0.25596108      -0.98460196       0.65814832       0.44929552
C        7.10993282      -7.06967350       7.59000083      -0.10010122       1.51190584       0.27259520      -0.59619494       0.01953324      -0.32373354
H        7.72296851      -7.42401567       8.39568210       0.05829685      -0.16534871       0.19811761       0.58104086      -0.00303276       0.49421641
H        7.52104941      -6.13629651       7.19756560       0.23973278      -0.12138619      -0.08179893       0.05342949      -0.26908226      -0.23006667
H        6.14101324      -6.82558486       8.06678962       0.13216153       0.05933924       0.06322511       0.16999902      -0.27259333      -0.56193586
C        6.54712439      -9.46426861       7.39724636       0.83200496       1.01780977      -0.03977316       0.37291599      -0.96255606       0.80886332
O        7.31006241     -10.23020606       8.05709740      -0.21659446       1.08118715       1.09306977      -1.30080653       1.45860243      -1.16807971
N        5.19126726      -9.64270314       7.38358418      -0.55644608      -0.65096888      -0.60148354       0.72769274      -1.24750411       1.15641272
H        4.53462796      -9.04854625       6.91070573      -0.26566811       0.20231512      -0.14565400       0.18031435       0.25274202      -0.36148710
C        4.61966046     -10.72262458       8.22026808       0.11689343      -0.36182547      -1.28781344       0.16522231       0.99213085       0.05198188
H        5.24164384     -10.78507399       9.13429904       0.31300364       0.13830748       0.01469166      -0.78674461       0.69298486       0.27035959
C        3.09995884     -10.50823740       8.30457795      -0.98318943      -0.20882796       0.61083382       1.42591051       0.80869443       2.86649501
H        2.77180241     -10.35418271       7.34965723      -0.05375680      -0.10683446       0.13516274      -1.12570640      -0.11423017      -2.72374685
H        2.61500943     -11.33351409       8.80264426       0.14106354       0.17848667      -0.03155390      -0.16241532      -0.20276965      -0.00446697
H        2.85773311      -9.55526324       8.81814835      -0.20131080      -0.12348583       0.02834517       0.26007745      -0.54469942       0.14013339
C        4.90593574     -12.08628480       7.72411282      -0.14231171      -0.50278002       0.37719900       1.69990033      -1.49414668      -3.41233658
O        4.68368643     -13.11556822       8.34646014      -0.02663086       0.66897510      -0.26829760      -0.42760948       0.19835882       0.73726799
N        5.59918943     -12.19231878       6.49205652       0.38230021      -0.18594825      -0.40895501      -1.09588245       0.03365162      -1.18955535
H        5.75827606     -11.40607983       5.82040273      -0.04333519       0.08371594       0.25535528      -0.42486841      -0.68722786       1.30053539
C        5.80314764     -13.53426536       5.84747090       0.33814058      -0.40766809       0.31333733       2.54139077       1.12270574       1.37420875
H        5.18681333     -14.20647853       6.39601102      -0.00883077      -0.09473537      -0.23398780      -0.71721694      -0.71530923       0.26647557
C        5.67091450     -13.57641569       4.35370717      -0.27051388      -0.26106566       0.71289447       1.41494822       2.76485442      -0.21411683
H        6.26099217     -12.68100701       3.92293836       0.04021099       0.25343309      -0.01000963      -0.58819314      -1.31249901       0.51951150
H        6.02369531     -14.46151875       3.85964201      -0.02490444       0.13853938      -0.01967918       0.02767779      -0.50457579       0.22806899
H        4.67857776     -13.33442363       4.15740977      -0.09670178      -0.05976722      -0.00841211      -1.96515220       0.05118075      -0.88882316
C        7.26538648     -13.99577407       6.17197896      -0.14211555      -1.16888255       0.62846063      -1.27508762      -0.00288116      -0.33439904
O        7.68742088     -14.98429961       5.61572182       0.19237700       1.01428441      -0.17898317       0.67991794      -1.51970388      -0.55623455
N        7.95229160     -13.29770458       7.06717137      -0.69118637       0.57398717      -0.06675562      -0.89710404       1.74619566       0.54167188
H        7.56638303     -12.40950715       7.31006971      -0.03469380      -0.02056597      -0.15351200      -0.35019630       0.72965247       0.21623887
C        9.17279409     -13.68362560       7.65587387       0.24156986       0.32850321       0.90867423       0.26718528      -0.31552131      -0.57842877
H        9.29857317     -14.60753512       7.10717270      -0.07785676       0.19815527       0.06338841       0.90468305      -0.77063884       0.27534965
C       10.33667405     -12.72150955       7.34895515       0.75458854       0.22063786       0.94455090       0.39424713      -1.37324880      -1.42609911
H       11.25210046     -13.21464270       7.73467681      -0.11271649      -0.18853461       0.19726429      -0.43514215       0.83682379       0.31675467
H       10.51113163     -12.69684057       6.22269074       0.23327793       0.10373781      -0.08271878      -0.52685851       0.10323203       1.26924640
H       10.10296061     -11.72101818       7.69407415      -0.08228117      -0.20722061       0.11211398       0.37500768       0.15635308       0.29083530
C        9.02570108     -14.00817718       9.13569044       0.14098607       1.02460895      -0.21339416       3.07116265      -1.49546647       1.25562459
O        9.99187645     -14.48926114       9.77473460      -0.87569346      -0.25340703      -0.41674056      -0.28842510       0.57147238      -0.97739295
N        7.87540595     -13.84647707       9.75656203       0.57698040       0.11229432       0.94508156      -0.52662924      -0.21712398       1.73399173
H        7.24902277     -13.28632157       9.26817543       0.06711433      -0.10122056      -0.25666846      -1.80993428       0.88924924      -0.82312019
C        7.74833094     -13.76083349      11.24207060       1.13485211      -0.67508211       0.06701179       0.41473602       1.98118619      -0.49937663
H        8.11607921     -12.68345148      11.50734379      -0.13113416      -0.23828682      -0.13627467      -0.49802695      -1.88592137      -0.01829695
H        6.66857423     -13.79756652      11.46797669      -0.25907782       0.15746202      -0.13007446       0.53766954      -0.21330299       0.02245944
H        8.34357985     -14.50697180      11.80098491      -0.06150177      -0.15656549       0.39333618      -0.36697083       0.35193913      -0.70006842
