112
Properties=species:S:1:pos:R:3:momenta:R:3:forces:R:3 energy=-497.6419182472341 pbc="F F F"
H       11.83675958      -1.20604988       3.61938671      -0.02349768      -0.20620615       0.08047061       0.27984330       1.16785184      -0.15357207
C       11.70549852      -2.11105171       4.14815410      -0.76809406      -0.38019314      -0.65884006      -1.24666322      -0.68502285       0.92563575
H       11.48601004      -2.01330400       5.22232035       0.46877729       0.15616887       0.08886554      -0.49199311       0.70995280      -0.29859120
H       12.60470340      -2.63827633       4.27356731      -0.03415907       0.13041371       0.03432343       1.40236788      -0.95963540      -0.66347455
C       10.60641863      -2.95134677       3.56257734      -0.18288980      -0.23414639       0.45531036       0.07503033      -0.28603392       0.57537969
O       10.38653565      -4.09816232       3.98938408       0.06451899       0.52776685       0.29683759      -0.21759030       0.35158661      -0.31097590
N        9.83277067      -2.35080277       2.62244667       0.61667556      -0.14184575       0.79222759      -0.42093293      -1.57850712      -0.03979874
H       10.12819242      -1.46524697       2.28877891      -0.06681513      -0.13697432      -0.30719633      -0.05889549       0.75306641      -0.37180638
C        8.58453338      -2.98344900       2.10482957       0.70588066      -0.18090935      -0.20452463       1.13504650       0.32290545       1.36417646
H        8.01999784      -3.31158448       2.98172902       0.08312465       0.09464997       0.17686076      -0.02749407       0.12817625       0.23925477
C        7.76607524      -2.01112815       1.31720052      -0.23368378       0.63890031       0.22455075      -1.42039589       1.09035810       0.06127060
H        7.65707561      -0.96327358       1.82293467      -0.15087595       0.00101829       0.09487163       0.44640264      -1.86367786      -0.94171952
H        8.16932732      -1.96654854       0.28680589      -0.04443334      -0.03359969      -0.25024967      -0.42446827       0.43756461       0.43641921
H        6.73651795      -2.45930787       1.30647422       0.03720469      -0.19884718       0.00472882       0.82641383       0.57814078      -0.41832716
C        8.76025853      -4.28279172       1.35095449      -0.96082923       0.78510542       1.70674182       3.16971826      -0.29100325      -0.66303142
O        7.78601976      -4.93718866       1.04864847      -0.36643125       0.17695590       0.68485925      -0.97684597      -0.63104416      -0.07776729
N       10.06765593      -4.71471037       1.01007384       0.05606609      -0.06058572      -1.10812119      -2.60290788       0.69756007       0.04027368
H       10.85367690      -4.13628175       1.25519501      -0.15111276       0.08787487       0.22148176       0.10304972      -0.02182451      -0.13095503
C       10.23307855      -5.97446924       0.29772206      -0.92499691       0.40249707       0.66360408      -0.68023507      -0.35835389       1.31214747
H        9.37811438      -6.16106927      -0.33497525       0.10512519       0.05011459       0.06211219      -0.32508714       0.46652408      -0.54295295
C       11.50971257      -5.99637836      -0.44469336      -0.41760891      -0.03969084      -0.27567551       1.65030114      -0.23358251       0.66783710
H       11.51560139      -5.17254121      -1.14709837       0.01713676      -0.20190425      -0.16370389       0.34007699       0.09262202      -0.29749924
H       12.41964376      -5.94732210       0.26671899       0.11806854      -0.12279165       0.07253329      -1.31583647       0.02840507      -1.09437176
H       11.52894964      -6.95519092      -0.94640961       0.04498784       0.03208449       0.26312129       0.40122259      -0.11241689      -0.37034991
C       10.16430399      -7.20654916       1.23600113      -0.68254247      -0.53799214      -0.46581031       1.37164301       1.35253594       2.37701706
O       10.10154471      -8.35850779       0.85582837      -0.38248339      -0.18561273      -0.56323428      -0.41820612       0.17679262      -0.01013322
N       10.36171086      -6.78282156       2.58745535       0.05301391       1.39388009       0.15476093       0.28853985      -1.06309769      -1.76713911
H       10.70784299      -5.83783647       2.72783961       0.04573489      -0.07351761      -0.14988954      -0.37996148      -0.16203907      -0.00820617
C       10.45422833      -7.67968353       3.70957548       0.53184606      -0.17099152       0.58927043       0.33303728      -0.61016452       1.04293495
H       10.53777197      -8.73331978       3.40068136      -0.17003857      -0.08577004       0.11038133       0.14109307       0.46931945      -0.36321695
C       11.64538252      -7.29838817       4.66825441       0.61694859      -0.99101413      -1.20054504      -0.79742143       0.23838829      -1.33064775
H       11.43791951      -6.27077008       4.97630901      -0.00250458      -0.05925726      -0.05429660       0.46962039       0.11475277      -0.01856715
H       11.68472334      -7.89752176       5.57998060      -0.00486366       0.13150509       0.18945429       0.02742232      -0.25413813      -0.32309398
H       12.56076025      -7.37603760       4.04296210      -0.08920257      -0.16130240      -0.02286428      -0.30331388       0.12976283       0.75067010
C        9.10580467      -7.65620688       4.42936348       0.57251344      -0.50781532       0.67171710       1.40848604      -0.11239708      -0.92667824
O        8.48565600      -8.69314500       4.53985835       0.44958599      -0.43135430      -0.79006901      -1.23590910      -0.77130950       0.74554748
N        8.71562747      -6.44113167       4.84122413      -0.15632256      -0.11186605       1.13713542       0.33687792       1.83623550      -0.98514691
H        9.09357170      -5.58712433       4.41392274      -0.03806484      -0.16724588      -0.22801078       0.65268243      -0.69721209       0.13630023
C        7.49147157      -6.19544107       5.44634964      -0.59973649       0.53574821      -0.69283543      -1.48473826       1.40255901       2.24130806
H        7.35058129      -6.91961455       6.21568504      -0.02340374      -0.32724368       0.05347527      -0.37305174      -1.18153365       0.34356859
C        7.43717337      -4.88536742       6.35472377      -0.66207799       0.85742891      -0.67303048       0.19351366      -1.12771396      -0.73881339
H        6.43795889      -4.91043452       6.76918330      -0.00904144       0.18357712       0.19753282      -0.51377523       0.78785294      -0.59765251
H        7.98603941      -5.02774083       7.26897310       0.07932298      -0.16026654       0.08077854       1.16550881       0.03597199       0.01230395
H        7.75204872      -4.00830695       5.77447784      -0.02378056       0.16471493       0.14379101      -0.35018551       0.02831042       0.47664446
C        6.18084026      -6.18221141       4.68807796      -0.23098438       0.22798406       0.87265962       0.01651573       0.24569848      -1.21157303
O        5.15194025      -6.12046394       5.37005289       0.17057155       1.31071421       0.37219364      -0.15105297      -0.65492541      -0.45286495
N        6.14394919      -6.18369624       3.30520834       0.41503970       0.02798149       0.41295175      -0.82007837      -0.95863701       0.83966021
H        6.97989874      -6.07050244       2.73350717      -0.08505458      -0.04717113       0.03660213      -0.31450730      -0.21122231       0.05946920
C        4.78667619      -6.39528534       2.69069369       0.06550692       0.18113766       0.11393434       0.74702581       1.85920007      -0.72671400
H        4.19209214      -5.49401176       3.00796128      -0.05395479      -0.02546015       0.21571940       0.22438046      -1.16410662      -0.14275652
C        4.79579805      -6.36541483       1.09867026       0.78110465       0.08632339       0.54727889      -0.54362682      -0.70966227       1.91998768
H        3.77749701      -6.07854204       0.84211168       0.22865277      -0.29031027      -0.10422319       0.14583442       0.17251004      -0.31551620
H        5.54359346      -5.67119956       0.79106974      -0.19704728       0.06095175       0.23727849       0.34996186       0.51822090      -0.52977875
H        4.96679556      -7.36654646       0.70465218      -0.20642868      -0.11450436       0.19889066       0.26165166       0.06265320      -0.08635039
C        4.07313853      -7.65669671       3.08967801       0.36419907      -0.11989442       1.17347109      -0.58259396      -1.27249731       0.09722890
O        2.82881319      -7.68598006       3.18752610       0.48742047      -1.24080414       0.08755593       0.95729511       0.09398720      -0.17947698
N        4.77649518      -8.83965146       3.16524618       0.17470661      -0.37560952      -0.20915636       1.65994348       1.26014652       0.38874221
H        5.80829642      -8.90670908       3.10621532       0.03378396       0.02200939      -0.08889985      -0.93269910       0.65655945       0.04054450
C        4.09042660     -10.10112209       3.27673658       0.03647573       1.09189158      -0.43828256      -0.50785544      -0.01038592      -0.23324264
H        3.38109895      -9.99980368       2.44611718      -0.04657916      -0.00027190      -0.11745283      -0.14224916      -1.16303403       0.00343185
C        5.15641796     -11.24165086       3.21729519      -0.25951861      -0.04064640      -0.94123356      -0.15300422       0.72155105       0.86453859
H        5.90588496     -11.14031720       4.01831556       0.21603229      -0.06878445       0.18631153      -0.24019742       0.46675896      -0.08135292
H        4.75991100     -12.20612589       3.41721677      -0.23201508       0.07627765      -0.37648204      -0.90656287      -0.81120464       0.05298581
H        5.72742000     -11.34433867       2.30825892      -0.09367593       0.05031170       0.01210625      -0.09619245       0.45664955      -0.64763203
C        3.17082870     -10.14516867       4.58573005      -0.11768669       1.02557295       0.15768245       5.24316611       0.25087405      -1.28902661
O        2.09027667     -10.63126425       4.56944467      -0.92550547       0.20180870      -0.58858898      -2.45809331      -0.48409526       0.55876403
N        3.96750904      -9.79571391       5.66754620      -0.04137018       0.13031919      -0.77132766      -1.93057215       0.41330841      -0.00122821
H        4.81213436      -9.26221653       5.48495157       0.06580748      -0.19000003      -0.22923012      -0.19222421      -0.14019337      -0.17022083
C        3.30724792      -9.53035741       6.92113031       0.27962377       0.02668163      -0.22972328      -0.89227023      -1.24350009       2.14081555
H        2.74493722     -10.47148565       7.28581004      -0.00979751       0.05180833       0.03447282       0.75380033       1.22186565      -0.85895596
C        4.36509176      -9.24454096       8.00756249       1.03003874       0.55628455       0.18961116      -0.63829073       1.62550706      -0.55267984
H        5.01788905      -8.36913591       7.75283684       0.05784456       0.11402965      -0.11002724      -0.48937193      -0.63416253      -0.02062674
H        3.80557519      -8.95108078       8.89529840       0.03876082       0.03173311       0.02264596       0.24387024      -0.21514323       0.27785832
H        4.97637682     -10.10211182       8.16977228      -0.23339183      -0.09756529      -0.14719226       0.44041937      -0.66186063       0.26381900
C        2.18028050      -8.41388905       6.96537353       0.11584435       0.02324175      -1.10930467       1.21094197      -0.37847245      -0.90746821
O        1.18845775      -8.50420148       7.69334533      -0.05695300      -0.38669851       0.93406234       0.57854561       0.12369924      -0.42538989
N        2.47860940      -7.38477063       6.12835099      -0.69910017      -0.15327543       0.21328201      -1.20766190       0.39918034      -0.06807323
H        3.32572673      -7.41800529       5.52667859       0.20309350       0.11805054      -0.07536625      -1.04994511       0.23715557       0.76819712
C        1.54577319      -6.21391256       6.02651796       1.15650046       0.00226552      -0.41905820       1.80296927       0.68340250       0.59467670
H        1.52724954      -5.68141516       7.01093557      -0.19938022       0.21198363      -0.37313294       0.03331141      -0.60995822      -0.58126207
C        2.06301937      -5.22501200       4.95109169      -0.76452507      -0.56479938       0.48234611      -0.78731659      -0.90347047      -1.18611824
H        3.15266053      -5.09176233       4.83702716      -0.05913215       0.08807831       0.19572911      -0.55124796      -0.05546813       0.73859595
H        1.71217713      -5.65356475       3.97939594       0.13773642      -0.29272212       0.22205130       0.40232099       0.47585193       0.49095817
H        1.51441984      -4.29982806       5.08359465       0.11560456       0.13031688      -0.03878753       0.18969268       0.35105336       0.05212819
C        0.07393047      -6.46927459       5.71612068       0.09870705       0.68153213      -1.05546694       0.05819449      -0.74893775      -0.42663223
O       -0.78350459      -5.81093644       6.26540073       0.22557148       0.10191085      -0.43175014      -0.68098035       0.46873712       0.53258678
N       -0.19085281      -7.36404010       4.72995056       0.65715143       0.03009938       0.62577999       0.64484579      -2.06241514      -1.48403080
H        0.60877034      -7.79957866       4.22520672      -0.38394107       0.06837671      -0.09023386      -0.56265423       0.68785608       0.66797049
C       -1.50626103      -7.85963068       4.25635601      -0.34036065      -0.11727991       1.19546848      -0.99416128       1.71846955       0.43707244
H       -2.23651427      -7.64626625       5.09097002      -0.01758258       0.05743777      -0.20057040       0.62679727       0.16254497      -0.71185893
C       -1.99226345      -7.11336414       2.94312752       0.91956682      -0.37677413      -0.24559735      -0.31855140       0.34265208       1.02672894
H       -1.19521364      -7.20241417       2.19296323      -0.10421666      -0.12319019      -0.01727185      -0.31108775       0.16463951       0.03521029
H       -2.93854215      -7.56001596       2.57626067      -0.09652342       0.07851264       0.05319811       0.72218356      -0.01621477       0.19973214
H       -2.23400813      -6.03228950       3.16431169      -0.10501404      -0.24551889       0.14698976       0.63889786      -1.06395274      -0.15020960
C       -1.69443652      -9.36279003       4.09420884       0.53016990      -0.98524996       0.38909219      -0.27453720      -1.00404224      -0.22039952
O       -2.70407252      -9.78105790       3.50577698       0.71435258      -0.50145928      -0.87137864       0.74850862       0.21755182       0.46590590
N       -0.80938678     -10.20004418       4.70916118      -0.10875098       0.76893776      -0.85634681      -0.51029467      -0.38198616      -0.59299244
H        0.06828668      -9.81089323       5.03498555      -0.34645070      -0.05874334       0.39660394      -0.00501840      -0.19878251      -0.11915608
C       -0.92428895     -11.68662376       4.64281587       0.30436299       0.19763818      -0.89347111      -0.31305311      -0.23147851       1.10342290
H       -1.99809793     -12.02049357       4.87548974       0.00044788      -0.19313010      -0.01159667       1.21245595       0.88735034      -0.10109347
C       -0.55323754     -12.34056415       3.32656514       0.93601087       0.24320716       0.11743814       0.21297779       0.24661345      -0.00429911
H       -1.26923786     -11.96354371       2.60870694      -0.17391173      -0.17059401       0.01274521       0.01201472      -0.16630256      -0.53225757
H        0.45668023     -12.03136911       3.08784361       0.15829572      -0.10324605       0.05970522       0.22086986       0.13251094      -0.35857224
H       -0.53381963     -13.44435655       3.38352380      -0.11365818      -0.13276847      -0.06303304      -0.35585492       0.63048719       0.18563231
C       -0.08464942     -12.29795156       5.78626625       0.59232573       0.70533433       0.44406090      -0.43955563      -1.77123079      -0.35497170
O        0.24536637     -13.49925315       5.71339981      -0.35949896      -1.53872208       0.39580573      -0.21869466       1.09999427       0.14688617
N        0.10811085     -11.56445243       6.89084102      -0.82191384      -0.58923217      -0.28076150      -0.18002444      -0.49299294       2.03860814
H       -0.27474734     -10.63403695       6.90561658      -0.16340150      -0.10908309      -0.11943077      -0.08676281       0.15876673       0.18115085
C        0.28578907     -12.25952832       8.23746971      -0.48528613      -0.09961138       0.01287105       0.96210620       0.29222978      -2.65274640
H        0.64956395     -11.56090556       8.94464157      -0.19220891      -0.18607464      -0.34791704       0.29442745       0.75984172       0.63051868
H       -0.59490478     -12.74572910       8.57128557      -0.20865371       0.10828168      -0.29136418      -1.18288153      -0.20500944       0.19875157
H        1.00968723     -13.04744904       8.06269174      -0.27487840       0.20870839      -0.06783674       0.25381108      -0.03722146       0.07074766
