112
Properties=species:S:1:pos:R:3:momenta:R:3:forces:R:3 energy=-496.40555910245405 pbc="F F F"
H       -7.54389960     -10.80393302       3.25495253       0.10257113      -0.00637915       0.14965599       0.67888376       0.01143026       0.28093946
C       -8.26459641     -11.02259380       2.49270395      -0.74578371       0.23121161      -0.62777157      -0.53510723       2.26440044       0.34113726
H       -8.96951311     -10.12444660       2.51065696      -0.24295346       0.15669367      -0.26790877       0.23012624      -1.64584620       0.22570293
H       -8.65053619     -11.98706688       2.71315488      -0.11297401       0.09052895       0.06517680      -1.01056462      -0.65830276       0.22098440
C       -7.63565860     -11.01524028       1.16951401       0.51425230       0.26207485      -1.13172655       0.84437451      -0.11506705      -2.72237013
O       -6.42407242     -11.13868982       0.93046580       0.36468059       1.30357387       0.80791100      -0.45381103       0.17164354       0.60036662
N       -8.49293955     -10.83820765       0.08404761       0.34455122       0.20131501      -0.42763538      -0.92696231       0.31797220       1.68508585
H       -9.50556172     -10.85282656       0.27548465       0.35081509       0.05438009       0.00765649       0.87111997       0.16180583      -0.26298762
C       -8.03694269     -10.61596342      -1.25753440      -0.41154168      -0.08970780      -0.24872538       1.28739868      -0.97828693      -0.13114112
H       -7.44500633     -11.48684714      -1.58566325      -0.04729606      -0.24326424      -0.01430256       0.31422807       0.18888347       0.46045283
C       -9.09335011     -10.52551530      -2.30817797      -0.22887633      -0.14850941      -0.34619876       1.17942245       0.01460936      -1.34002523
H       -9.61871863      -9.59750014      -2.20402286      -0.09091270       0.16420352       0.33627126      -0.88282047       0.34188764      -0.13392115
H       -8.37557619     -10.40958468      -3.16870731      -0.27719766       0.13329978      -0.15075010      -1.33660156      -0.07339789       0.07369610
H       -9.70570878     -11.42938281      -2.45433445       0.41470526       0.09642865       0.26240468       0.11877142       0.47450948       0.27321475
C       -7.07178570      -9.41244696      -1.46046101       0.16534000       0.44928451      -0.42041362       0.53072349       0.96428465      -0.06622435
O       -6.39128114      -9.29365644      -2.48306307      -0.03973405      -0.00791093       0.23231838      -0.45174951      -0.67937634       0.43320317
N       -7.04917854      -8.44139009      -0.49016717       0.32070972      -0.70159863       0.35241644      -1.50176898      -2.81055452      -0.53495454
H       -7.75273855      -8.54779455       0.18861985      -0.12611441       0.29127533      -0.03928180      -0.77373501      -0.00851389       1.16026228
C       -6.19236123      -7.35835977      -0.47057627      -0.63800111       0.35234039      -0.82842715       1.79751057       0.42976065      -0.88462115
H       -5.63721891      -7.57522771      -1.43803835      -0.01867048       0.14336130      -0.05399990       0.03334512       0.78123565       0.93542395
C       -6.91860949      -6.02457799      -0.53145069       0.64588352       0.36911387      -0.46209034       0.84166569       0.03069981       2.11194754
H       -7.35181546      -5.79191004       0.46140689      -0.26600823      -0.07373716       0.36556358       0.32596119      -0.10869773      -0.14086460
H       -6.16449725      -5.25839720      -0.69659292      -0.20875171      -0.07210679      -0.06611669      -0.40657557       0.26051448      -0.43109348
H       -7.76966067      -6.06568293      -1.15621237       0.27388844       0.05513585       0.09434974      -0.46335270       0.13543831      -1.36445352
C       -5.16752596      -7.40637217       0.71130363       0.01004244      -0.33171662       0.11412992       0.13138856       0.90571584      -0.41057159
O       -4.71991051      -6.31738367       1.13572050      -0.25749250       0.08875780      -0.99011706      -0.24791778      -1.63257180      -0.25106068
N       -4.73766362      -8.63745893       1.15327208       0.22595134      -0.17909820       0.41102757      -2.41506997      -1.22259786      -1.24500973
H       -5.25634187      -9.57529606       1.02452312      -0.03040260      -0.31174967       0.04275034       0.62787914       2.11315462      -0.53982560
C       -3.78733105      -8.70097432       2.18597313      -1.38257810       0.11139825      -0.04120756       0.63331217       0.77231329       1.05645651
H       -3.94623485      -7.73441742       2.72304444      -0.16582590       0.03240862      -0.13325748       0.73672039      -0.61314783      -0.01776459
C       -4.07041774      -9.88877103       3.07194252      -0.78453291       0.66368876       0.65711835      -0.06029905      -0.81718698       1.81726308
H       -4.22888964     -10.76713099       2.45307852      -0.04374289       0.25722270      -0.07944493       0.11227946      -0.22223962      -0.16061250
H       -3.24231172     -10.17060172       3.83116070      -0.01622169      -0.01659177       0.08888257      -1.29119101       0.80548573      -1.19981143
H       -5.04925863      -9.72576382       3.61361726      -0.02289528       0.17124055       0.00639344       1.04925339      -0.11017819      -0.31878759
C       -2.38095532      -8.80443484       1.59788833      -1.07713776      -0.81614754      -0.13809919       2.85266157       0.84864240       0.02386730
O       -1.96904437      -9.63813205       0.77822154       0.22656795      -0.49142129       0.59667034      -0.97038440       0.88140688       0.95965880
N       -1.54022612      -7.80224110       2.14916728      -0.35192027      -0.19863925       0.21486176      -1.57727004      -0.99478970      -0.82227545
H       -2.00180044      -7.28396423       2.88605111      -0.12419034      -0.35970077       0.14721994       0.38032157       0.18913784      -0.07471986
C       -0.11010303      -7.60421201       2.01382143      -0.15934419       0.19499434      -0.80132654      -0.28446795      -0.07163457      -0.38119037
H        0.29075611      -8.15022620       1.11026340      -0.13127626      -0.14406334      -0.00336449      -0.62595166       0.23682145       1.05621963
C        0.25215527      -6.10315118       1.86709703       0.67645230      -0.59500867       0.13274860      -0.71995607      -0.54770043       1.07236918
H        1.31529621      -6.06500813       2.11612395       0.19084766      -0.16513948       0.08060865       0.01129283       0.57518348      -0.40902965
H       -0.01391783      -5.74868003       0.87920649      -0.32081775       0.29649645       0.12333399       0.24919073       0.14616112      -0.20012466
H       -0.32678957      -5.51525267       2.62338764       0.05969736      -0.10625775      -0.24764554       0.54776722      -0.41444081      -0.50526852
C        0.52405436      -8.05463543       3.34408580      -0.17539142      -0.24584347       1.06351077       1.87799681      -1.74707468      -3.44912671
O        0.06271388      -7.76865907       4.40030076      -0.09869687      -0.92028929      -0.36880597      -0.82383438       0.81162348       2.67325192
N        1.65363253      -8.83242527       3.13449377       0.59586100      -1.52275115      -0.44350440      -0.23214976       0.13176743      -1.28171002
H        1.99953482      -8.98283916       2.14896251       0.18383405      -0.11263220      -0.07877800      -0.64908259       0.47337104       1.44022797
C        2.72322930      -8.98269117       4.09368239       0.27427630      -0.19721069       0.14123042      -2.15666100       0.96297180       1.57062811
H        2.37753818      -8.39040678       5.02801090       0.05489410      -0.17315037       0.01040525       0.70532632      -0.85767357      -1.29830128
C        2.94358148     -10.43485229       4.40123284      -0.69640662       0.97175195       0.14533240      -0.24602892      -1.08207708      -0.65868135
H        3.16213623     -10.90957103       3.40355458       0.02508102       0.14293949       0.14478136      -0.22890796       0.01231033       1.06549975
H        3.72741979     -10.70954797       5.12635932       0.11255456      -0.09654808       0.00550941      -0.24536569       0.45209100      -0.29225132
H        1.96206602     -10.73132592       4.76577028       0.20556897      -0.02342119       0.25345463       0.09920649      -0.74912767       0.03262186
C        3.92009005      -8.43471662       3.48517733      -0.03982305       0.03347220       0.31739558       2.54526189       1.24570353      -1.61089590
O        4.12886274      -8.39412800       2.22416587      -0.88585591       0.32275498       0.17819944      -0.28621057      -0.09182791       2.99139618
N        4.82705281      -8.05717541       4.43749316       0.06174855      -0.31393882       0.33224359       0.33121559       0.68532640      -0.08226218
H        4.60011432      -7.89676991       5.42795985       0.09155868       0.31550933      -0.07849742      -0.39899968      -0.24280261      -0.71565361
C        6.06347742      -7.38115968       4.07576356      -0.76383966       0.44264403      -0.33110283      -0.88833409       1.41709890      -0.17563295
H        6.49227049      -7.96948426       3.32583551      -0.14247616       0.13725825      -0.09379432       1.19208266      -1.12333384      -0.93832522
C        5.81798843      -5.98772207       3.44472090       0.14524288       0.18258103      -0.14576064       0.09163906       0.45119191      -0.28710071
H        5.90361215      -5.22705599       4.21062755       0.17087195       0.04335169      -0.13871372      -0.52727330       0.26133176       0.19529062
H        6.53953338      -5.69089892       2.68940782      -0.00351796       0.17004303       0.13930510       0.71333835      -0.42250320      -0.00044929
H        4.90303745      -5.89910677       2.85707829      -0.24240704       0.10560335      -0.00482271      -0.34885098      -0.29127670       0.55839561
C        6.88080408      -7.15849803       5.34196268      -0.69557610       0.43906696       0.73922607      -1.02081716      -0.68447835       0.06201338
O        6.28555532      -6.70456545       6.34503679       0.12437502       0.52457351       0.42738341       1.12844677      -0.38869667      -0.86196127
N        8.16045092      -7.56866221       5.27771673      -0.44361275      -0.28324017      -0.74824986       0.78919529       0.89413798       1.48905619
H        8.61700558      -7.89492214       4.44876169       0.19482778      -0.33335150      -0.03615243      -0.11434297      -0.22613171      -0.47751196
C        9.05563230      -7.37639250       6.44374997       0.21334818       0.25608359      -0.28220742      -1.39940084       0.48448727       0.61339942
H        8.95948680      -6.35317880       6.83629894      -0.16813332       0.14779147      -0.05615868       0.08468807       0.10750276      -0.61877757
C        8.58096968      -8.25535425       7.57669674      -0.31648897       0.11876143      -1.18153207       0.50067684      -0.81048573      -0.21310868
H        9.02141429      -9.22950570       7.39011419       0.02326284       0.01510942      -0.02446603      -0.76047857      -0.68355695      -0.01580404
H        9.03136047      -7.96428560       8.48786847       0.11031023      -0.15963674      -0.03886624       0.58958636       0.66195368       1.12204698
H        7.51119511      -8.19904215       7.73421144      -0.15407194      -0.20747867       0.39070189      -0.11916408      -0.32800677      -0.29166492
C       10.48386390      -7.71385148       6.10461306       1.18340361      -0.40314963      -0.19747590      -0.68829928       2.31522321      -0.02765190
O       10.75038068      -8.51663351       5.24645132      -0.24658430      -0.91070749      -0.05712518       0.50063828      -1.83539510      -1.25869771
N       11.38632133      -6.88710070       6.66663172       0.83151335       0.25012310       0.62890864       1.50482906      -0.50901019       0.22940363
H       11.14573672      -6.32924444       7.47045099      -0.08335286       0.21512406      -0.01870390       0.10437455       0.20160767       0.18999260
C       12.84805259      -7.14125862       6.47671535      -2.01627199      -0.23431084       0.33394297      -1.59911084      -0.48043077      -1.66677706
H       12.99944602      -8.24529314       6.51164986       0.01774902       0.13999007      -0.33184713      -0.02643561       0.58047460       0.02160534
C       13.26093557      -6.62164183       5.06356148       1.00934160       1.19724957      -0.42321454       0.28186752       1.90677227       0.20884479
H       12.65446477      -7.00287632       4.27126794      -0.10535822       0.02999179       0.30674187      -0.69320869      -0.69719591      -0.17617374
H       13.07324986      -5.49897629       5.02090671      -0.00577757      -0.14154567      -0.01361633       0.41591889      -1.19633951       0.24767206
H       14.29864231      -6.79487240       4.71970922      -0.04750106      -0.22020827      -0.07272504      -0.29626224      -0.02924035       0.70054962
C       13.59187365      -6.49735610       7.58119042       0.48032784       0.01645020      -0.19689445       1.08110145       0.95037267       2.44440932
O       13.05590829      -5.86100749       8.53960569       1.16199764       0.15758725      -1.00593448       0.89883181      -1.29687408      -2.02551226
N       14.94651824      -6.73015210       7.49816564      -0.62790683      -0.18339415      -0.24618355      -0.42008103       0.07454366       0.07411684
H       15.35537316      -7.25404786       6.72013487      -0.06330486       0.01764165      -0.06787073      -0.40355897       0.17511565       0.30878353
C       15.89112496      -6.50938785       8.60304109       0.18402485       0.25249712      -0.12267360      -0.50815504      -0.04089162      -0.36378896
H       15.50519133      -5.62905657       9.14202002      -0.13072742      -0.03747403       0.05129314       0.08472826      -0.55886890       0.24854713
C       16.04561592      -7.80860788       9.44082475       0.28927327       0.24716878      -0.91098834      -1.03489048       0.17801703      -0.03767375
H       16.53604024      -7.49444116      10.37493078      -0.02697892      -0.32886586       0.16812685      -0.11019944      -0.59885742      -0.09826973
H       15.00425585      -8.24954808       9.64840428       0.15254973      -0.02879089      -0.01511691       1.57236474       0.68843179      -0.11788734
H       16.65589567      -8.55356590       8.87444210      -0.12390802       0.07196313       0.01930827      -0.42727293       0.62870741       0.48691238
C       17.21499811      -6.16678188       7.91920332       0.29128204      -0.24839426       0.35215249      -0.51255993       0.10690885      -0.21967081
O       17.66967547      -6.97272648       7.10099583       0.55203418      -0.53669962       0.77535640       0.34282617       0.43859415       0.17109187
N       17.70327285      -4.92677569       8.17054855       0.29684480      -0.50654551       1.15400792       2.12222154      -1.65477137      -1.74166657
H       17.45444176      -4.37140426       8.93676902      -0.13745986      -0.04933235       0.30144462      -0.87658097       0.86490526       1.47835415
C       19.02825833      -4.50283132       7.66004858      -0.02934657       0.44475941       0.48764048      -0.50281348       1.61503096       0.29035425
H       19.82317546      -5.24342435       7.74697733      -0.02377263       0.03967019      -0.06837804      -0.39022378      -0.63540126      -0.40148231
C       18.87920148      -3.93698160       6.22362424       0.80625327      -0.37524832      -0.85905739       0.24145773       0.81538264       0.52311184
H       18.16228620      -3.09983838       6.11599263       0.38851279       0.12610042       0.15303208       0.33184699      -0.21048776       0.71206774
H       19.84604919      -3.56319873       5.89799622       0.25445184      -0.04432070      -0.10942160       0.21142841       0.04232826      -0.25086786
H       18.52208461      -4.63571818       5.49611913       0.17327121       0.03642114       0.05879524       0.03991855      -0.96253497      -0.15978593
C       19.50375659      -3.39336085       8.70994393       0.36456289       0.10704507       0.90878663      -0.75307596      -0.87736190      -1.70457722
O       18.67930133      -3.00057804       9.52319229       1.31003561       0.36329331       0.87417458       0.27840747       0.29913522       0.64752013
N       20.80763091      -2.99287965       8.68206072      -0.24902200      -0.11947212      -0.17609131      -2.33018977      -0.25268835       0.92106321
H       21.34780360      -3.05348610       7.88792324       0.02155973      -0.03784851       0.09445395       1.12770984      -0.54186933      -2.06517596
C       21.22207682      -2.14068763       9.70902910      -0.49023785      -0.14862732       0.06492248       0.54628062       1.33652912       1.81208719
H       21.08188299      -1.04937451       9.62811301       0.28086166      -0.15725803      -0.03788186      -0.65090274      -0.30906713      -0.42000964
H       20.74830142      -2.49998965      10.60996230       0.12957220      -0.17649117       0.23401813      -0.34350494       0.31347727       0.40174538
H       22.26065601      -2.21529298       9.91804539      -0.09699279       0.28412481      -0.04283151       1.22777508      -0.46665494      -0.16671581
