112
Properties=species:S:1:pos:R:3:momenta:R:3:forces:R:3 energy=-496.5806011967847 pbc="F F F"
H      -10.55350185     -11.43240278       2.19032242       0.00969850       0.07124738      -0.24849700      -0.19121515      -0.48914904      -0.10282449
C      -10.63698693     -12.32407153       1.55609056      -0.58026499      -0.91572411       0.74223798      -1.39630433      -0.72482161      -1.33175287
H      -10.31527861     -12.11501242       0.52801456       0.04214571      -0.01460356      -0.09044358      -0.26935236       0.31831653       0.11468774
H      -11.70155342     -12.76851330       1.51263113      -0.18941107      -0.00917688       0.18872366       1.23643851       1.29999438       0.05944913
C       -9.89972259     -13.49951673       2.08996233       0.08477258       0.83801505      -0.55703089       0.45368543       0.66439191      -1.75176385
O       -9.99577306     -13.75453596       3.24526183       1.22263855       0.16631403      -0.36992368       0.09923564      -1.19704949       3.55476125
N       -9.18856113     -14.25225445       1.20057599       0.03856297      -0.08242461      -0.71174878       0.12489576      -0.16989138       0.25604369
H       -9.25150244     -13.94868647       0.25812346       0.02318165      -0.04561884      -0.03261616       0.28321031      -0.09161163      -0.82841714
C       -8.46421431     -15.45690299       1.56479920      -0.82320251      -0.37347800       0.82990870      -1.24426969      -1.20686011       1.27435680
H       -8.53374088     -15.47762949       2.68718516      -0.11813121       0.31533784       0.21457922       0.05438541       0.08785203      -0.73831032
C       -9.08081902     -16.77326031       1.05413276      -0.24116821      -0.16180874      -0.92161176      -0.91176862      -0.76190104      -0.01396292
H       -8.46131684     -17.63250920       1.35254408      -0.24766051       0.15234810      -0.05891375       0.31871698       0.49835449      -0.40501208
H      -10.03907706     -17.06056791       1.56094204       0.11147516      -0.08067035       0.02726089       0.38560049       0.90965036      -0.61209139
H       -9.20649620     -16.78499105      -0.06411827      -0.19738740       0.01043506      -0.18749250       0.09651221       0.00181334       1.04881133
C       -6.99024012     -15.46992446       1.22686164       0.37260789      -0.61692765       0.00296639      -0.26099693       2.08369846      -0.15204276
O       -6.38233634     -16.46993542       0.93818513      -1.37553563       0.50026492      -1.03984823       0.94960989      -1.44724471      -0.44611350
N       -6.45748306     -14.22653996       1.22359529       0.63265081       0.39323861       0.38073713       1.00762609       0.76511404      -0.53027869
H       -6.85303840     -13.47034997       1.76588392       0.06544541      -0.05314414       0.15726589      -0.47437691       0.11481780      -0.00299011
C       -5.07363709     -13.88302421       0.84208108      -0.17420659       0.36361921      -0.47656932      -0.63770141      -0.37213948       0.75134847
H       -4.50814556     -14.78719398       1.12069758       0.00280502      -0.02284956       0.21995621       0.37554377       0.36713361      -0.53950738
C       -4.94756830     -13.46637859      -0.63244519       0.26440304       0.63964680       0.11849535      -0.35333092      -1.72486873       0.36973618
H       -5.52711951     -14.23753920      -1.13682621      -0.17898485       0.08555600      -0.05980412      -0.11057249       0.12879217      -0.49246398
H       -5.36636672     -12.49351653      -0.84829026       0.15887495      -0.14083450      -0.04838601       0.07691208       0.26530862       0.05902572
H       -3.93010973     -13.60966181      -0.96992729       0.21947965      -0.43343048       0.05557589       0.33889237       0.45468579      -0.13573525
C       -4.70011551     -12.70371161       1.72743492      -1.07026497      -0.15973851      -0.29332581      -0.86272362      -0.29877161       0.65313314
O       -5.60931223     -12.12674497       2.35647133      -0.32250288      -0.86497376       0.78863286       0.93823282       0.25645066      -0.13169376
N       -3.40640152     -12.37025687       1.80036167      -0.55908529      -0.90092014      -1.43513737       1.61560729      -0.59189488      -0.51990930
H       -2.58880869     -12.74455308       1.20285527       0.12542779      -0.17900129      -0.09050886      -1.84524669       0.28774968       0.70504606
C       -2.89380796     -11.30038747       2.60567264       0.04621447       0.39118465      -0.27796391       1.31814280       0.96491836      -1.17075802
H       -3.46185333     -10.35954759       2.45241223       0.23478398       0.13914779       0.09921414      -0.28288074      -0.57383490       0.25984260
C       -2.68255305     -11.56489290       4.09653085       0.07637356      -0.08732158       0.98187262      -1.21296467      -2.05698010      -0.95598545
H       -1.95287012     -12.36462861       4.25083103       0.17295418      -0.29647064      -0.26328613       0.19959775       0.11410352      -0.15420622
H       -2.29980560     -10.66159064       4.49847394      -0.11801608      -0.14633190       0.02208555      -0.10007221       0.73452985       1.06467864
H       -3.64540654     -12.00745208       4.49287731      -0.10293733       0.13483796      -0.06956434       0.91379127       1.18308936       0.01385353
C       -1.53307972     -10.94734211       1.84966152       0.52194814       0.24827554       0.07550992      -0.90926125       0.27224992      -0.07917116
O       -1.03767267     -11.59920614       0.93306470       1.23696070      -1.27170705       0.20823537      -0.27062532      -1.45995112       0.03564037
N       -1.02893264      -9.76600234       2.14354448      -0.07338075      -0.54639434      -1.08904310       0.37922717       2.56443119       1.50817469
H       -1.53232909      -9.13273577       2.79981552       0.10243286      -0.04208872      -0.12221427       0.75508887      -0.60875659      -0.79815978
C        0.18236920      -9.23621023       1.45106341       0.43230430       0.25222900       1.12612608      -0.21047556      -1.42251211       0.09448607
H        0.90612054     -10.12016059       1.49028666      -0.21728400      -0.34772241       0.44200083      -0.71162365       1.17061004      -0.33167719
C       -0.17135299      -8.88392475      -0.01891744      -0.44702788       0.24325296      -0.72259302      -0.85705412       1.04071718       0.12494094
H       -0.52644620      -9.77413925      -0.59077421      -0.08476542       0.21786130      -0.06755106       0.78748853       0.64322151       0.44966142
H       -1.01983192      -8.13848234      -0.06458360      -0.18343699       0.15256786       0.03572931       0.65999148      -0.72981628       0.45448587
H        0.65293195      -8.30749451      -0.46666118      -0.03494381      -0.05726508      -0.19719029       0.00725011      -0.70984940      -0.19440472
C        0.79228163      -8.05790564       2.24647173      -0.22899509       0.14768247       0.17187322      -0.50899078       0.28938097      -0.18813690
O        0.13621522      -7.08509742       2.66521401       0.45848692       0.91431161      -0.83534015       0.25099109      -1.13578812      -0.37694364
N        2.13326156      -8.16129855       2.40088285       0.77013706      -0.09560402      -0.79232611      -0.07799202      -0.22558150      -0.65964358
H        2.63458414      -8.88748513       1.89523888       0.03427648      -0.09545464      -0.22416222       0.16326988       0.23125132       0.31093848
C        2.85522995      -7.05141480       2.96243358       0.51765542       0.10778799       0.99386754       0.87136359       0.97409300      -0.44893734
H        2.39116622      -6.10458938       2.52232815       0.13987059       0.00355861       0.26775160       0.55714990      -0.94437667       0.64248641
C        2.67565215      -6.98345870       4.47862758      -0.57357091      -0.54602362       0.58788760       1.15106859       1.05078598      -0.18170273
H        2.93606657      -7.83200133       5.12266860      -0.16568747       0.18406658      -0.14073823       0.08714521      -0.12633394      -0.71465664
H        3.32079344      -6.13500043       4.74908444      -0.27281876      -0.10549887       0.14991005      -0.35471715      -0.13697474       0.54710713
H        1.66183615      -6.70638263       4.60721553       0.06036995       0.07197219       0.25746652      -1.03363060       0.22470892       0.58210831
C        4.38757789      -7.07294427       2.58183967       0.84961301      -0.19858829      -0.71926194      -0.65081826      -1.43049117      -0.05661549
O        4.90509040      -8.10976714       2.10820687       0.56984335      -0.42912424       0.38302984      -0.70833020       0.98948667       0.30636135
N        5.12355383      -5.98425456       2.88195205       0.22012564       0.14473289       0.50166840       0.03224719      -0.61635721       0.19488953
H        4.87282787      -5.08997115       3.31672457       0.02760686       0.05037724      -0.20200882      -0.46452309      -0.48468020      -0.04920823
C        6.55956842      -6.06050730       2.77497227       0.80637404      -1.01901044       1.33668742       0.61374617       1.78396805       0.01247003
H        6.95790202      -7.02384509       2.80602934      -0.19056401      -0.04353619      -0.06862105       0.17028172      -1.88255477       0.71389071
C        6.96776589      -5.52237787       1.43550940       1.10470682      -0.50209852       0.67704846      -0.27919564       1.47142730      -0.65878406
H        8.02289183      -5.33291338       1.33036923      -0.31178210       0.04924153      -0.00590213       0.61898407      -0.38251374       0.02856588
H        6.60567619      -6.17734308       0.65391834       0.07782519       0.14292906      -0.04783122      -0.05929022      -0.02955018      -0.26868262
H        6.52057847      -4.51731940       1.35314670       0.24601876      -0.37824964       0.05804494      -0.09553256      -0.32334568      -0.34976248
C        7.12932901      -5.09595055       3.82836302      -0.38839508       0.87209014       0.03801612      -0.85546779      -0.38207564       0.13356019
O        6.34127483      -4.20324623       4.20662206      -0.14295468      -0.35965674      -1.06705133       1.29870641      -0.01925907       0.19488369
N        8.42342760      -5.23357203       4.21782797       0.20612287      -0.04384106       0.69322756      -0.93422777      -2.11708391      -1.16791448
H        9.03970893      -6.06626339       4.06292038      -0.09816605      -0.04220574      -0.16335755      -0.94700095       0.66729330      -0.49590284
C        9.04876478      -4.36436712       5.07842338      -0.20982389       0.10628789      -0.27657137       2.28585576       2.48017232       1.52554001
H        8.91759753      -3.32442039       4.75915371       0.10297969       0.17225799      -0.27802726      -0.39441282       0.05241599      -0.14594822
C        8.61331968      -4.41789841       6.54056440       0.32451182       0.78163991       0.00770406       1.25488154       0.01386768       0.74227503
H        9.14001555      -3.59444023       7.10229181       0.14716486       0.08222622       0.00975444      -0.63716278      -0.68472486      -0.44677672
H        7.54706883      -4.23732974       6.54482791       0.15919584       0.03898227      -0.43357349      -0.26609075      -0.17329206       0.42040910
H        8.93162671      -5.37591847       7.03370953       0.22772404       0.39105381       0.11147666      -0.61403598       0.68216523      -0.46625064
C       10.60791233      -4.56280257       4.92060116      -0.02511587       0.14245982      -0.57087447      -2.86249743      -2.23073141      -1.39198771
O       11.02350851      -5.55290766       4.31841140       0.37013408       0.75972463      -0.40439665       0.20464260      -0.79907366      -0.23014789
N       11.35358632      -3.61632271       5.34314080       0.27544749       0.04467919       1.09065257       2.19441244       2.83329624       2.00143360
H       11.00830606      -2.90059003       5.98309820      -0.02558575       0.08139187       0.19841483      -0.07087796      -0.01381058      -0.24352008
C       12.82773859      -3.64789120       5.33481153       1.30742531       0.13703348       0.54222596      -1.89749056      -2.55595092      -1.29793238
H       13.13047978      -4.72703311       5.51067628       0.16826382      -0.11759847      -0.28323016      -0.26542015       0.96222830      -0.17869682
C       13.36522513      -3.23572201       3.94496032       0.19047005      -0.64932833      -0.24462633       0.05878285       0.05387956       1.08381354
H       14.44052519      -3.33342012       4.13380655      -0.06263723       0.11810243      -0.03850960       0.00921829      -0.03370299      -1.11418874
H       12.91099434      -3.82403407       3.11697629      -0.14030333       0.15352880      -0.05793138       0.63934786       0.15213716       0.78281412
H       13.12437176      -2.18455043       3.81580923       0.01015096       0.09524191      -0.12915297       0.05339662       0.21630474      -0.22061895
C       13.28981284      -2.82053511       6.46064112       0.81162790       0.00149337       0.06457049      -0.97145688       2.17588527       1.08395540
O       12.55585051      -1.97346107       7.04912107      -0.24381149       0.17831977       0.93906499       1.07852504      -1.22986807      -0.97280757
N       14.59417402      -2.95777238       6.65947646       0.41785385       1.10237561       0.23291237       2.85772614      -2.06784783       1.19102161
H       15.07338138      -3.91947733       6.55464114      -0.18648136       0.01526712      -0.18894472      -1.03123583       1.87152588      -0.39013957
C       15.40234668      -2.17965122       7.62069153       0.32244842       0.98900340       0.55873568      -2.64987337       0.64982289      -0.71070157
H       15.15989876      -1.12992152       7.36755185      -0.18663792       0.07786042       0.10422171       0.33435456      -0.17854818       0.30867664
C       15.02723644      -2.45746498       9.08596157      -0.46447756      -0.54797293       0.10947829       0.96585067      -1.38724792      -0.16693513
H       15.76327280      -1.94116510       9.69552531      -0.06981487      -0.03684675      -0.06077092      -0.39622852       0.39759703       0.46118390
H       13.98797713      -2.25432756       9.31114047       0.04964713       0.00864506      -0.25804551      -0.00760136       0.36839420       0.00062988
H       15.22878187      -3.53611647       9.30143000       0.19453815      -0.13313930      -0.29616418      -0.26622325       0.57728545      -0.25608239
C       16.82946209      -2.51193418       7.40108412      -1.12366637      -1.50144632      -0.23091375       1.58016556      -0.29958302       0.98181075
O       17.16381403      -3.63638827       6.97345164      -0.41980555       0.61230993      -0.04026053       0.03910842       1.59151051       0.27052283
N       17.65737108      -1.52844558       7.96868146      -0.89582457      -1.16033941       0.57804775      -0.67177985      -2.09395284      -1.84025355
H       17.11976268      -0.80620017       8.45365845       0.07219452       0.12406649      -0.04749756       1.07299219      -0.08365026       0.03396619
C       19.05607844      -1.85225210       8.27160342      -0.02562334       0.47285580      -0.96642894      -0.02891159      -0.58376484       0.86399575
H       19.27948945      -2.89748291       7.98758562       0.07514547      -0.02488107       0.08899632      -0.76487355       0.29489855      -0.11282041
C       20.11300079      -1.00914310       7.56123528      -0.70910173       0.26689546       0.26686452       2.46255351      -0.23614125       0.88653154
H       19.88771116      -0.88633949       6.52281131      -0.15977211      -0.10176581       0.00578907      -0.41835047       0.19701749      -0.63327214
H       20.39272885      -0.01530054       8.02041670      -0.01928671      -0.00866871      -0.18270208      -0.72259693      -1.00606598      -0.35171021
H       21.09839713      -1.62961791       7.54997035      -0.28841765       0.31091944       0.25118164      -1.47498623       1.01091025       0.17635725
C       19.16275693      -1.69536538       9.80379391      -1.20930038       0.09954818       0.75556127       1.12445885       0.54531139      -0.15674286
O       18.64030282      -0.68439893      10.24596488      -0.47680543       0.30183925       0.14515722      -0.31923450       0.37955378       1.04136517
N       19.96325477      -2.53047487      10.54789930      -0.32647968       0.08356642      -0.17707716      -1.05147171       1.05909965      -0.64425725
H       20.39670612      -3.25868486      10.04272844      -0.15669403       0.05771274      -0.09570846       0.48038670      -0.83726917      -0.52648667
C       20.60261223      -2.14652325      11.77926072      -0.37465988       0.14961259       0.36638371       0.87029716       1.82715964       0.92371693
H       21.10622589      -3.03656798      12.18483908      -0.00717455      -0.33900550      -0.07700368      -0.54141513       0.37672988       0.30518768
H       21.42789229      -1.37185230      11.62379636       0.00985122       0.15361067       0.05090584      -0.73908143      -0.89297203      -0.22953409
H       19.93333992      -1.56766142      12.49433900      -0.00411570       0.21586914      -0.27541683       0.38824911      -1.38049076      -0.84069735
