112
Properties=species:S:1:pos:R:3:momenta:R:3:forces:R:3 energy=-497.433674667684 pbc="F F F"
H       -2.66921991       1.99345763       8.06964609      -0.22315239      -0.09564978       0.02222687      -0.06082004       0.09708426      -0.27545083
C       -2.69634727       1.47990331       7.09904122       0.43885792       0.51906131      -0.35130268       2.39677469      -0.32707432       1.19635589
H       -3.18992074       2.06279492       6.38103162      -0.08304686      -0.14146978       0.17978028      -1.16928107       0.58266089      -0.93684448
H       -3.05426973       0.49466805       7.26189098       0.04929216       0.12377780       0.08625510      -1.01855595      -0.68068235      -0.13592558
C       -1.27613925       1.22885086       6.56696076      -0.82363596       0.07129874      -0.11214515      -0.79793081       0.64030035       0.43566224
O       -0.99766594       0.19859536       5.95974117      -0.61424760      -0.40913101      -0.29889746       0.38330082       0.11567032      -0.21832909
N       -0.39837642       2.25101156       6.79786431       0.43036325       0.78127048       0.08657264      -0.69737939      -1.14986214       0.66772165
H       -0.68945665       3.05705180       7.31139883       0.01086777       0.11421115       0.10931773      -0.44101558       0.14988212       0.26218253
C        0.91760985       2.31199887       6.28435116       0.69575988       0.38462935       0.50863259       1.29533997       0.52297491       0.44969048
H        0.80690257       2.37473212       5.21056526       0.12983544      -0.24841280      -0.03592242       0.59490408       0.28919489      -0.56789224
C        1.61354007       3.55810074       6.94473858       0.74633438       1.15793378       0.97189887      -1.67122670      -1.08635000       0.38330231
H        1.73697378       3.28965925       8.04527999      -0.01877581       0.05163928       0.14480663       0.28432596       0.71071489      -1.41373399
H        2.47800971       3.80424322       6.37977518      -0.26740506       0.32929389      -0.18367716       1.17274899      -0.03078878       0.09929335
H        0.93786645       4.41545272       6.82280382       0.09229632      -0.14978023       0.02604336       0.01372634      -0.09410602       0.29425032
C        1.87177447       1.12193150       6.50598427      -0.70531457       0.22817829      -0.57154774       0.95750561      -0.44337686      -0.94243621
O        2.91987658       1.09721627       5.82932501      -0.34206667       0.09853912      -0.17574998      -1.06790588       0.15472737       0.53227107
N        1.57229513       0.10238399       7.35797201       0.44922496       0.31779609       0.23726633       0.53108695       0.08018875       0.21276006
H        0.85221703       0.21630395       8.05442004       0.09970011       0.19024969       0.11329594      -0.23667441       0.04512043      -0.18559142
C        2.54082463      -0.97713036       7.59693208       0.07942969      -0.34311875      -0.06439411       0.19251962      -0.75095865      -0.75281925
H        3.50833596      -0.61573578       7.14619849      -0.00667310      -0.27655161      -0.02363253      -0.65769223      -0.25501422       0.80178042
C        2.52791950      -1.33647505       9.08491071      -0.04386024      -0.14416901       0.15667076      -0.20061490      -1.71521295      -1.17342641
H        1.47598350      -1.48255709       9.33808039      -0.15845698      -0.10587193       0.05621040       0.07933945       0.22926976       0.52188269
H        3.04212120      -2.27580358       9.34406621       0.07738070       0.12982538       0.01536714      -0.24781373       0.02683452      -0.73343992
H        3.04894090      -0.65200553       9.67045347      -0.11476441      -0.34089914       0.10642469       0.32605125       1.76411745       1.05519250
C        2.27715579      -2.29380069       6.73185434       0.52682420       0.03155331      -1.23338275       0.23612688       0.71384029      -0.39585058
O        2.96507700      -3.30623825       6.92680454      -0.26130141      -0.29878601       0.05655835      -0.67409237       0.47121481      -0.24476874
N        1.42456252      -2.11570379       5.67543831       0.27011501       0.67602275       0.01056649      -0.22855189       0.35474582       0.34521016
H        0.84033227      -1.27502098       5.59813383      -0.02591410       0.31719819      -0.18168793       0.58932954      -0.11552759       0.72484696
C        1.05343638      -3.04632687       4.63109018       1.16122938      -0.35622439      -1.27914884       1.06294259      -0.87590338       0.01962591
H        0.79139665      -4.06873965       4.98822088      -0.16900970       0.08221004      -0.18129249       0.08179543       0.65533547       0.42315351
C       -0.14950007      -2.50602610       3.92753533      -0.02904103      -0.49992059       0.41282680      -0.62812342      -1.54051253      -2.15997142
H       -1.01130693      -2.48875496       4.56064220      -0.06060209       0.01738112      -0.24425635      -0.46349717       0.04405508       0.65279641
H       -0.04848454      -1.51950091       3.49079686       0.18925946       0.00914338      -0.06954637       0.33810410       0.20180545      -0.09678339
H       -0.38854553      -3.25959050       3.10375809      -0.17095279      -0.14096172      -0.28211000       0.24763255       1.12457600       0.81165535
C        2.21893660      -3.46989498       3.68341325      -0.10517599       0.51086266       0.18534823       0.34836771      -0.49913130       0.67901061
O        2.05544745      -4.46757171       2.97231392       1.32800175       0.51982304       0.97690033      -0.05549296       0.44027056      -0.10850796
N        3.46738146      -2.93698501       3.85803630       0.08620430      -0.74539214      -0.78392723      -0.76293831      -1.31422309      -0.85349273
H        3.61848909      -2.14816877       4.42893840       0.14858416       0.08967028      -0.17677644       0.08462254       0.88835296       0.69205041
C        4.59435758      -3.54111970       3.13631449       0.24495534      -0.75609003      -0.32693039      -1.78532105      -1.39419472       0.25409399
H        4.24902317      -3.55017744       2.08033438      -0.05640053      -0.07820002      -0.05213667       0.81801447      -0.30273528       0.40723475
C        5.82435727      -2.78051842       3.42903759      -0.30969872       0.93421531      -0.64126358      -1.83020342       4.19007914      -1.52413551
H        6.67862673      -3.28113202       3.24222317       0.01581900      -0.00429611      -0.10153547       2.74688997      -1.81969668      -0.85230628
H        5.79851573      -1.85454837       2.72295475      -0.20381829      -0.11244812       0.24362240       0.32680953      -1.23119436       1.39066088
H        5.85865633      -2.43879845       4.44565864       0.05668213      -0.01930950       0.10683728      -0.11653616       0.21215824       0.62725936
C        4.92401935      -5.01735179       3.56680880      -0.38487251       0.43328271      -0.31209911       1.21757583       0.05621064      -1.21883263
O        5.70925948      -5.66395020       2.83331704      -0.23496529      -1.11409506      -0.38792699      -0.99612443       0.35237472       0.64514074
N        4.58024904      -5.43251137       4.79323868      -0.08501545       1.12771513      -0.23746270      -0.05864143      -0.34635154       0.36256684
H        3.92922027      -4.89018520       5.30849797      -0.09336860      -0.48235509       0.04300427      -0.63905637       0.78912314       0.62771699
C        5.17268868      -6.57189601       5.46901128      -0.02765536      -0.51588530      -0.26484681       2.62562514      -0.95142015      -1.83372331
H        6.27494081      -6.62690566       5.06967755       0.09263231      -0.23359586      -0.16887012      -1.75336433       0.09934410       0.38783103
C        5.29312890      -6.45846335       6.97157611      -0.34002876       0.41516897       0.50108632      -1.44693504       0.35857466      -0.25737045
H        5.92809515      -5.63858245       7.25752060      -0.12152268       0.25346330       0.11888894       0.76970066      -0.02352709       0.10972740
H        4.32582901      -6.14256255       7.34138791       0.17014677      -0.07430097      -0.04063867      -0.53770319      -0.13725353       0.38381186
H        5.52018951      -7.43185266       7.39597447       0.00819187      -0.14232585      -0.08314240       0.36419720       0.15271789       0.05434325
C        4.65685157      -7.96264518       4.99805841      -0.28217496       0.78012814       0.56952881      -1.41175321       1.11363070       0.44589868
O        5.20813966      -8.96049992       5.45093944      -0.88784690      -0.13484104       0.38764123      -0.06300848      -0.22990572      -0.71136896
N        3.54512038      -7.97657971       4.14350670       0.07545992      -0.19289909       0.84174052       0.76006316       2.42045320       0.07144507
H        3.12674035      -7.00360397       3.84927749      -0.26401820       0.06752602       0.17544992       1.23393294      -2.61456176       0.58124795
C        3.35863081      -9.15672435       3.33549798      -1.03643905      -0.18272045       0.08393923       0.81162452      -1.26177065      -0.01278087
H        3.26035094     -10.05486979       4.04937363      -0.02578298      -0.15353783       0.08276954      -0.05309601       1.20292041      -1.06218978
C        2.19938596      -9.07294157       2.36514349       0.46234392      -0.61310741      -0.31306677      -0.93129947      -0.80443855      -0.70309277
H        2.24269646      -8.23714246       1.64437057       0.03457084      -0.10167272       0.20221517       0.32344030      -0.11630070       0.43667459
H        2.22228344     -10.01257696       1.74125366       0.13725425       0.00641112       0.04967670      -0.14134733       0.86820035       0.68516504
H        1.20978521      -9.00921130       2.86484529      -0.07931519      -0.12774434       0.11654879       0.59814351      -0.09535233      -0.11260382
C        4.64278803      -9.57535333       2.48899451       0.01188773       0.61532127      -0.74758612      -0.35542663      -1.18152283       0.27767624
O        4.71039956     -10.76726118       2.12537576       0.68921194      -0.31770531      -0.32150523      -0.20541989       0.84965741       0.12904882
N        5.63497608      -8.69378608       2.23533546       0.14138225       0.37067526      -0.02769814      -0.80894841      -0.73158388       0.36536957
H        5.51120538      -7.73687288       2.54540820      -0.05519741      -0.04634884      -0.24655696       0.36482599       0.32518045      -0.07955727
C        6.86453732      -9.13895901       1.61207331      -1.46082613       0.43366397       0.72126014       1.74438352       0.71679182       1.14971942
H        6.84557678      -9.12576424       0.52259957      -0.03134274       0.10388147       0.24529531      -0.38548255      -0.27280493      -0.01784665
C        8.01983461      -8.15835151       2.03178560       1.12130994       0.87139471       0.40467072       0.33473765      -0.76404076       0.62248904
H        8.28281200      -8.24214980       3.11519461      -0.06911975      -0.06623666       0.14726370      -0.38475903      -0.28193980      -0.65205107
H        8.92720308      -8.47061229       1.47233550       0.20168848      -0.05780433      -0.04271025      -0.54519488       0.61858941       0.15601713
H        7.73343308      -7.12103265       1.92861106      -0.07635546      -0.01846577       0.06837102       0.04165976       0.30810469      -0.62669352
C        7.46038674     -10.51312980       2.05030501       0.60473552      -0.42204703       0.04603873      -0.85645884       0.08764677      -0.69010964
O        8.05801463     -11.15979876       1.16799845      -0.84486659       0.20236346       0.41198307      -0.37870007       0.34970382       1.76999515
N        7.37452847     -10.84383503       3.38854510       0.12897872      -0.43284703      -0.74478135       0.40284226      -0.57457763       0.17915704
H        6.81720074     -10.36618553       4.12530114       0.05867091       0.08224081       0.17405471       0.27801843       0.03696064      -1.42203062
C        8.12559323     -11.98578222       3.94400229       0.61371417       1.05987046       0.10251442      -0.24497915       0.38828909       0.24992375
H        9.13863185     -11.98793550       3.48914431       0.12975509       0.00902196      -0.01267112      -0.57526091      -0.22840076      -0.10861909
C        8.37306346     -11.74661005       5.44724180       0.75060447      -0.37750036       1.03104581      -1.52569945      -1.13138535       0.17664435
H        7.52210031     -11.40091495       6.06896684       0.05168244      -0.24619802       0.06409076      -0.31349697      -0.61574916      -0.69457715
H        8.76935591     -12.66205052       5.91111802      -0.02473755      -0.01325656       0.01832936       0.16800486       0.54651692      -0.19274798
H        8.97884066     -10.90747018       5.50353165      -0.05841330       0.14210226      -0.05395377       1.91406305       1.28617205       0.29353054
C        7.53451885     -13.39488997       3.71695573      -0.09913825       0.01756696      -1.51803142      -0.68166584       1.79480084      -1.45051442
O        8.12084677     -14.33625653       4.20611203      -1.33577604       0.32585608       0.45131214       0.44075185      -1.38935061       0.87799230
N        6.46833131     -13.53435622       2.87245568       0.45922513      -0.31994200       0.22388327       1.26647445      -0.51961782       0.58564917
H        5.98754450     -12.73729096       2.47368612      -0.03146736      -0.16436816       0.01999324       0.10759626       0.16763764       0.07904633
C        5.92397104     -14.87526797       2.63680655       0.39317014      -0.58545644       0.13853695      -0.42007701      -0.24893998       2.15047297
H        5.55122069     -15.21118651       3.62365877       0.07217893      -0.00585825      -0.23389449       0.04606955      -0.18521429      -0.35341668
C        4.82027042     -14.69204369       1.67105927      -0.47523629      -0.32309799      -0.40161824      -1.67081266       1.61462516      -1.57038293
H        3.94854955     -14.06360362       2.01635631       0.02847083      -0.03266827       0.06809018       0.97499284      -0.61303984       0.30930310
H        5.28140794     -14.04181470       0.91581940      -0.06035952       0.22079523       0.42078541      -0.34537026      -0.28775161      -0.53939573
H        4.35714376     -15.53498911       1.16269056       0.10884250      -0.10820885      -0.06108616       0.51692089      -0.41979905       0.30148866
C        6.88411321     -15.99510053       2.23078371      -0.28707347      -0.55280857       0.54454833       1.43160606      -0.80492296      -1.24374239
O        6.61410248     -17.18576322       2.42282950      -0.34019978      -0.99182427       0.01589446      -0.09590454       1.08088275       0.15790141
N        8.01299711     -15.61125136       1.51857399      -0.34435413       0.40140180       0.15116589      -0.17033475       0.42872227       0.53202582
H        8.17808339     -14.61861999       1.45873392      -0.09023635      -0.06485298      -0.33988753       0.01842949       0.18163738      -0.02077929
C        9.10932079     -16.48102758       1.11247345       0.76504786       0.26619093       0.33511887       0.50239610      -0.50894090       0.38548266
H        8.63689678     -17.45022111       1.07977772       0.07780603       0.05884567       0.31177838      -0.04026987      -0.70463158       0.09508606
C        9.69031425     -16.19738488      -0.27072196       0.72524989      -0.52160382       0.17402422      -1.50143430       3.55344968       1.34853774
H        8.93576226     -16.33156870      -1.00357987       0.20819297      -0.01875281       0.08992046      -0.49129847      -0.36053599      -0.91031731
H       10.01735095     -15.10622030      -0.32952585      -0.03441465       0.33570376       0.20331461      -0.32424458      -1.15492152       0.05892583
H       10.53340281     -16.77018736      -0.35297450      -0.03642413      -0.11807946      -0.00298687       1.97894600      -1.62642914      -0.63983667
C       10.34147832     -16.67414878       2.09828734      -0.56491617      -0.63235671      -0.48804451      -0.48811147      -0.84411959      -1.04609377
O       11.36313635     -17.28344918       1.67739253       0.67288466      -0.24371331       1.60837293      -1.57646094       1.24742202       0.69096001
N       10.18047071     -16.30168288       3.37510618       0.00382261       0.37198163      -0.78122716       1.21389706       0.22973910       0.95078314
H        9.39961124     -15.79254600       3.80766952      -0.06414928      -0.05034261      -0.00433937       0.16816140      -0.19512582      -0.97010158
C       11.39196373     -16.48218278       4.21393455      -1.07963119      -0.55776272      -1.07533774      -2.76385473      -0.67083523       0.52719061
H       11.76278896     -17.44363417       3.98484484      -0.18949359       0.03510496       0.23268510       0.78882098      -0.91329185      -0.14639953
H       12.07454712     -15.73143177       4.04183286      -0.25772537      -0.19538269       0.01825342       1.77088708       1.57429087      -0.67302037
H       11.11791561     -16.42862440       5.25597319       0.24164429       0.12779101      -0.14528053      -0.29338497      -0.06864521       0.37997217
