112
Properties=species:S:1:pos:R:3:momenta:R:3:forces:R:3 energy=-497.09272087938484 pbc="F F F"
H       -2.92050392       1.94937631       6.40377199      -0.23414014       0.01652961       0.16677212      -0.60378022       0.19471854       0.51965736
C       -2.97316710       2.90316567       5.88197936       0.17434856      -0.01112157      -0.53292700       3.01039622       0.38500914      -0.42656992
H       -2.72483315       3.79041766       6.50684038      -0.09136268       0.15230716       0.18079115      -0.05127423      -0.83679219      -0.02807957
H       -3.88722089       3.10365355       5.39274874       0.09277712       0.22589294      -0.05217287      -1.00191620      -0.22813293      -0.54691154
C       -1.86182007       2.68118718       4.78244431      -0.20329542       0.05724249       0.56177404      -2.48634999       0.14070653      -0.83220559
O       -2.13961620       2.19753900       3.68010552       0.56329749       0.74537479      -0.76468090      -0.49406976      -0.57202358      -0.09113374
N       -0.62081949       3.04815377       5.00215641      -1.20232866       0.38797256       0.03832683       2.71047708       1.02816953       0.94910050
H       -0.29835146       3.50105416       5.83378451      -0.02692431      -0.16431205       0.02358810      -0.48673501       0.06073623       0.72499922
C        0.48652793       2.97264413       4.04279731       0.18183965       0.09081770       0.39608754       0.25037480      -1.43802690      -0.34104553
H        0.05597751       3.05864666       3.06530152       0.24864131       0.03644366       0.01578326      -0.36040252       0.05890277      -0.69767479
C        1.47986819       4.08288254       4.28458213       0.45477244       0.77780204      -0.03188622       0.60531920      -0.40560296      -1.41625138
H        1.69205144       4.17931160       5.32284958       0.22759624      -0.01324990       0.37361413       0.22052044       0.13913773       0.96614524
H        2.49857144       3.86229217       3.77889172       0.00831236      -0.02850340      -0.09572169      -1.91324626       0.65210345       0.51588409
H        0.91618330       4.95106151       3.92512183      -0.38776973      -0.33776317      -0.19105972       0.90597095       0.39022648       0.01809745
C        1.14930510       1.56811847       4.15560638      -0.41874611      -1.36690128      -0.35672075       0.73799159       1.14958328       1.79679246
O        2.19144343       1.46929724       4.87720323      -0.32230312       1.25011362       0.43556022      -1.35307976      -0.26763103      -1.32876897
N        0.46507109       0.51791680       3.69208337       0.52603309       0.00183307      -1.18287283      -0.51855228      -0.71890031      -0.63936195
H       -0.43908068       0.63434637       3.18404106      -0.15761942      -0.08979987       0.08692152       1.02390900       0.26103453       0.68980878
C        0.69855937      -0.79028884       4.34697943       0.41994360      -0.10144478      -0.11696449      -0.25306429       0.23449832       0.00062449
H        0.94007390      -0.46851564       5.38559731      -0.03504263       0.08600413      -0.07245301      -0.04137018      -0.62408842      -0.40121456
C       -0.52803045      -1.67838558       4.28860681       0.69485063       0.62644995       0.14742251      -0.64974022       0.53019040       0.68793596
H       -0.36484979      -2.40158955       5.05783510       0.07011041       0.15130889      -0.02482551      -0.29029551      -0.39909099       1.09315910
H       -1.50395688      -1.15635676       4.44100323       0.03727231      -0.02668710       0.02914791       0.86173275      -0.31726608      -0.02396653
H       -0.56987269      -2.34733222       3.45842354       0.05758037       0.07949205       0.09299231       0.03075635       0.21534468      -1.24139053
C        1.89681905      -1.58054466       3.77002550      -0.19647974       1.13855333       0.32926888      -0.47860247      -0.48923097      -0.87051150
O        1.73968963      -2.57588800       3.02096229      -0.16990249      -0.53076055      -0.43635153       0.37589941       1.24270154       1.36727183
N        3.11253946      -1.09815925       4.13728193       0.61736209      -0.42806256      -0.30347959      -0.07654632      -0.94473863      -1.01239585
H        3.12322753      -0.11351108       4.41693913      -0.09613294      -0.00169672      -0.34610823      -0.06450180      -0.00936188       0.26175480
C        4.26289374      -1.66185302       3.40239155      -1.02746125       0.19460315       0.97155757      -0.56974877      -0.22479945      -1.07427929
H        3.98314995      -1.80364156       2.31028729      -0.00193697      -0.18194697       0.04496476       0.41145131       0.64082712       1.03482930
C        5.40329267      -0.69633623       3.69316809      -0.34126966       0.01125079       0.08987516      -2.15288734      -0.52769317       0.22942753
H        4.99720852       0.27505580       3.53041272      -0.11063827      -0.25248145      -0.23148166       0.11426084       0.99285013      -0.40643043
H        5.60134097      -0.76667803       4.72202989      -0.07825616       0.14002799      -0.05858188       0.45931080      -0.03063418       1.60013185
H        6.27771370      -0.86072476       3.18360162      -0.28255878       0.17971583       0.21752530       1.95810249      -0.43133574      -1.49137364
C        4.52227361      -3.12781391       3.79817939      -0.34724484      -0.15222137      -0.91440581      -0.11232018       0.60380381       0.33473474
O        4.93660920      -3.94627968       2.98199848      -0.11138349      -0.32102538      -0.66298868      -0.07527944      -0.16690724       0.42231156
N        4.23579933      -3.37442398       5.10706220       0.72121732      -0.01413366       0.20240864       0.17173464       0.46995349       0.35303398
H        4.00282026      -2.52717656       5.65007190       0.21598382       0.16853105       0.00787072       0.05852109      -0.96830757      -0.28858203
C        4.54042986      -4.64945344       5.75429153       0.35544219       0.91270397       0.11355313      -1.51667020       1.46073203       2.03128183
H        5.42446088      -5.01851371       5.29559558       0.29226626       0.21858642       0.32232332       0.82692354      -0.57290819      -0.30151031
C        4.77462759      -4.46763377       7.37344307      -0.09245617       0.09788952       0.53804162      -0.15095009      -0.34383432      -2.61165276
H        4.25791565      -5.24545088       7.90247845       0.17374480       0.03710148       0.16226504      -0.38335388      -0.19625267       0.22708575
H        5.81502653      -4.64386976       7.47213596      -0.03666761      -0.03398728       0.27346472       1.05480301       0.01943147       0.53796736
H        4.53226313      -3.47612950       7.72671934      -0.34363765       0.10518816      -0.04609616      -0.24325718       0.21375554      -0.00566457
C        3.46895942      -5.70635744       5.55007119       0.22127751      -0.19541647      -0.61462168       2.11983551      -1.32298265       0.75487721
O        3.79259856      -6.87348420       5.83044202       0.20625276      -1.42241394       0.04669126      -0.14571391       0.25108814      -0.01979413
N        2.28540366      -5.42092501       5.05673202       0.06525517      -1.07060513      -0.42165207       0.35848928       0.60818648       0.26865945
H        2.09142138      -4.53833961       4.69690652      -0.02526124       0.05636515      -0.03579670       0.02986064       2.11194405      -0.49091700
C        1.43940685      -6.40510393       4.55593654      -0.57029998       0.32591989      -0.19930125      -1.74603556      -1.76372115       0.53317832
H        1.25934487      -7.15447920       5.33403525      -0.01897566       0.29238262      -0.18548710      -0.01626281      -0.01891894       0.02589042
C        0.14484189      -5.71391031       4.18120363       0.71367877      -0.14420583      -0.22177545      -1.03177251      -1.93634728      -2.15222647
H        0.40813665      -4.99426203       3.43744459      -0.16791735       0.07292379       0.08605339       0.04831514       0.77269181      -0.75756573
H       -0.60238912      -6.42537931       3.65171806       0.06077744       0.36605522       0.20020857       1.20799730       1.04635825       1.18048180
H       -0.30410164      -5.17631727       4.97791573       0.13248099      -0.25698966      -0.11221942      -0.48701320       0.15236248       1.00154788
C        2.02718602      -7.22077805       3.42565747       0.44529348       0.84141279      -0.68522334       2.05565528       0.94404036      -1.39942928
O        1.59802220      -8.30189662       3.09924902      -1.17059494       0.44559256      -0.16017774      -1.01955843      -1.06977927       0.11575277
N        3.12448162      -6.67571676       2.75191719       0.86059487      -0.19744511       0.91785049      -1.09416511      -0.94117814       0.28671839
H        3.46857711      -5.78207480       3.08019771      -0.06661697       0.06114707      -0.08917140       0.41748029      -0.05802535      -0.56874968
C        3.80595689      -7.49642935       1.70760158       0.00088608      -0.14111349       0.17541053      -1.13750717       2.00009510      -0.36741730
H        3.02026384      -8.12837695       1.19986067      -0.04527453      -0.25606250      -0.34898998       0.87589943       0.45031671       0.80800904
C        4.48235279      -6.58183724       0.63929780       0.10641346       0.18919489      -0.13083320      -0.95143035      -1.14681350      -1.03901833
H        5.23969810      -5.96726782       1.10860974       0.09509635      -0.31143560       0.25051652       0.17990876       0.23626279      -0.09346852
H        4.93232087      -7.32391526      -0.08742674       0.02183979       0.14521612      -0.01732865      -0.20380814       1.07467448       0.69990353
H        3.72856485      -5.96794785       0.08093490       0.07693013      -0.18470930      -0.42406629       0.63509113      -0.39227126       0.64256786
C        4.93228035      -8.32159368       2.23486194       0.23190078      -0.88980226       0.45689357      -1.51475353       1.44030460       2.66971503
O        5.48159480      -9.08836993       1.52261317      -0.05852929       0.85208185       1.20509925       2.02606134      -2.92086340      -2.94372591
N        5.34766054      -8.13975113       3.51068137      -0.28610715      -0.35368036      -0.69430893       0.54423536      -0.32362173       0.67155534
H        4.84514049      -7.59212559       4.20186389       0.24595254       0.17401439       0.29307680      -0.20231284      -0.09016685      -0.16590083
C        6.46170762      -8.93786782       4.03113415      -1.04920964      -0.73106183       0.32522490       1.23639165      -0.73254087      -0.67193525
H        7.28611238      -9.06439423       3.23534094       0.05908851       0.24415466      -0.07588241      -1.34617225       0.53511243       0.86044345
C        7.03701801      -8.24517276       5.24412539      -0.01541430       0.05712488       0.12189861       1.20651306       0.18558878       1.57621659
H        7.81728299      -8.85607935       5.80960947       0.03758783       0.03007571      -0.12345881      -0.90654815       0.44663108      -1.03256421
H        7.55146014      -7.28687643       4.98613460      -0.02839191      -0.03864413      -0.08105111      -0.56660211      -0.58207831       0.03364308
H        6.26937881      -8.05810506       6.02012332       0.07846505       0.05015555       0.20618709       0.14655648       0.03746945      -0.54648695
C        6.07516110     -10.41974076       4.40126145       0.49325287       0.77177696      -0.68537115      -0.71913773       0.84626006      -0.36988900
O        5.59104529     -10.70045290       5.51354136       0.97734520       0.51044614       0.81679592       0.87840281      -0.12658521      -1.55806514
N        6.27560189     -11.29285019       3.34303199       0.43916831       0.16532467       0.45239808      -0.58459154      -0.33666618       2.52480925
H        6.62489930     -11.01859137       2.44960464       0.14098233      -0.25936042      -0.10644993       0.22668349       0.51911516      -0.34543727
C        6.19336551     -12.69867254       3.62612646       0.67913636      -1.36897219       0.37347454       0.78504544      -1.24850525      -0.18058148
H        5.92628101     -12.84893532       4.67824302       0.05012411       0.19920425       0.08231656       0.15787185       0.42570490      -0.08636132
C        5.19698517     -13.45097872       2.77632952      -0.38575111       0.51054946      -0.19836842       0.02922330      -1.01893942      -0.25324750
H        5.54478074     -13.57455362       1.74135846       0.04155287      -0.05849883      -0.20334149       0.14119638      -0.34222605       0.29238437
H        4.90971661     -14.41149972       3.26293066      -0.03196962       0.14718368       0.04010731       0.48812249       0.37888262      -0.59398225
H        4.29855998     -12.91422126       2.67974293       0.12820572       0.16146947      -0.24146342      -1.33109908       0.95837606       0.11526138
C        7.58509728     -13.36714875       3.30431558      -0.31678890      -0.07562326       0.08231764      -1.76849255       0.41588831       1.74838028
O        8.24952690     -12.93752264       2.40338125       0.40484393      -0.42572472       0.78531384       1.46728360       0.59135842      -1.67706796
N        7.93060127     -14.39387976       4.10405564      -0.66351214      -0.60276610       0.25915184       0.61607515      -1.14510103       0.64224830
H        7.25738527     -14.73789281       4.78856682       0.40317005      -0.18290541       0.06976769       0.52994825       0.01644971      -0.13897124
C        9.23293944     -15.06954072       3.97000687       1.01020507      -0.45240787      -0.18105562       0.38908649      -0.89898188      -1.13181245
H        9.46156689     -15.23029719       2.90215621       0.20432945      -0.00780478      -0.18361651      -0.34015498       0.56135552       0.06345622
C       10.41084006     -14.33483692       4.57172275      -0.03105582       0.77701121       0.12916729       0.84674414       1.69740181      -2.88536260
H       10.45969484     -14.38588273       5.60381910       0.14338748       0.05032252      -0.08327520       0.08266969      -0.20514137       2.14459778
H       11.35836821     -14.69121145       4.09988264      -0.02484397       0.09267854      -0.29726530      -0.59655554      -0.02939199       0.58125261
H       10.38474087     -13.25744682       4.25820137       0.14424093       0.10384500       0.21957791      -0.18763717      -0.79605841       0.34315186
C        9.25721071     -16.49838180       4.53010462      -1.51442800       0.42834227       0.17037145       0.81430816       0.02163927      -0.98196494
O        8.43239063     -16.83190173       5.33883943       0.17081361      -0.05013304       0.64164392      -1.44256090      -0.77541661       1.51870642
N       10.24071757     -17.36469737       4.04714960       0.03456940      -0.17785196      -0.52539269      -0.24789851      -0.08758971       0.68547126
H       11.10055292     -16.94208798       3.73974260       0.05414023       0.35858771       0.01757735       0.30852357       0.11080980      -0.48144447
C       10.54716746     -18.64827700       4.77361017      -0.09321410      -0.33915575      -1.00948922      -1.34230568       1.16973457       0.72884859
H       10.58039417     -18.38010628       5.83419334       0.11721087       0.02872106       0.18968091       0.05474328       0.02986020       0.31174463
C        9.39928934     -19.62854315       4.62988256      -0.16888277      -0.19182256       0.82242433      -0.14091733       0.72823039       0.32446559
H        8.43137494     -19.17509816       4.88789147       0.03635752       0.32349034      -0.03983905       0.52300508      -0.04894930       0.05229759
H        9.35530740     -19.98281790       3.65015400      -0.13458998      -0.36659954      -0.13851418      -0.20434222      -0.41817211      -1.94945090
H        9.54259014     -20.50681938       5.20609238      -0.03616535       0.12357622      -0.23558958       0.17053236      -0.80254850       1.02214883
C       11.95343264     -19.07523716       4.45182249       0.47558198      -0.44319411       0.19765844       1.44945120      -0.52122650      -0.57939677
O       12.68254445     -18.29842696       3.82555661      -1.26132450       0.04273455      -0.82054453       0.06327105      -0.05774752       0.12343619
N       12.43847934     -20.28896930       4.91065819      -0.79486760      -0.59196605       1.46689441      -1.91915187       0.93317420       0.22202063
H       11.73686612     -20.85956307       5.41442876      -0.21951698      -0.22830665      -0.00741856       1.09942180       0.32195772      -0.40353257
C       13.86899345     -20.64670660       4.84171221      -0.76991934      -0.75075095      -1.09355784      -1.96244747      -1.49956730       0.71632854
H       14.29548053     -19.97054231       4.13177599       0.23124450       0.13457893       0.16457534       0.58941889       0.18191245      -0.28156012
H       14.27738165     -20.60669559       5.85619835       0.08099349      -0.24235134      -0.35999495       0.35808145       0.32144168      -0.25095296
H       13.86370568     -21.71977624       4.54337569       0.01096158       0.04248373       0.36544548       0.53908665       0.76458584      -0.17695013
