112
Properties=species:S:1:pos:R:3:momenta:R:3:forces:R:3 energy=-498.08547971101495 pbc="F F F"
H       13.13686791      -8.10888637      -0.05380282      -0.08861606       0.02926777       0.17527857      -0.99656739       0.55530999      -1.05044262
C       12.29127708      -8.13109711      -0.81398355       0.22553656      -0.31941630       0.31147456      -0.75963348      -1.34295279       2.27429444
H       11.83102357      -9.14301074      -0.60475384       0.21531986       0.05795989      -0.22290199       0.56630099       0.76715096      -0.39088017
H       12.58272729      -8.11569699      -1.82497190       0.02179893      -0.37434626       0.04213763       0.90234018       0.08052125      -1.15379954
C       11.09902167      -7.22406496      -0.58531246       0.08231591      -0.71611873      -1.00187927      -0.28927260      -0.56544043       0.79854068
O       10.33408832      -7.43991520       0.40099603      -0.22540391      -0.32031385       0.39711431       1.19923669       1.19548459      -1.66228834
N       10.80541446      -6.33814986      -1.59328829      -0.35434996       0.23542623      -0.60753586      -0.29795276      -1.14790858       1.84341713
H       11.48698392      -6.15823926      -2.29357710      -0.13986330       0.11026314      -0.01059055       0.45561122       0.12558021      -0.48191528
C        9.60596369      -5.53541579      -1.51608029      -0.78712177      -0.34620276       0.08118569      -0.04036994      -0.08477736      -0.56322058
H        9.67182277      -4.85598530      -0.63459211      -0.30379206       0.06947029       0.13754253      -0.20864338      -0.30204963      -0.64582316
C        9.48492339      -4.77607803      -2.88314003      -0.02241918      -0.69042551      -0.19245777      -1.36879100      -0.43838068       2.29091360
H        9.47848588      -5.51253960      -3.64221552      -0.00964340      -0.27588374       0.11044746       0.40749380      -0.58959838      -1.10574354
H        8.48898989      -4.36287397      -2.87093090      -0.08707649       0.15003310      -0.00022576      -0.35448228       0.48589715      -0.18319425
H       10.18560951      -3.97555008      -2.99760617       0.36913255       0.03956812       0.24602745       0.64132119       0.22518563      -0.14228516
C        8.32598168      -6.41445007      -1.22900927      -0.24947608       0.20689682       0.01807484      -0.14736024       1.39798150      -0.11700011
O        7.47067549      -5.85269330      -0.52237440      -0.52568090      -0.97176909      -0.85871126       0.30620773      -1.06062225      -0.34581493
N        8.13934728      -7.63368756      -1.83194267      -0.93783345       0.29735522       0.74409363       0.09814113       1.51734146       0.66215914
H        8.80956095      -7.97356804      -2.47688435      -0.25087841      -0.23202589      -0.17674549       0.69784283      -0.24507136      -0.48511870
C        6.96652383      -8.41532164      -1.54336353       0.59593675       0.06358566      -0.39902633      -0.16559947      -0.34861373       1.23586925
H        6.09469438      -7.74422517      -1.53683338      -0.01874857      -0.02339655      -0.18861158       0.04418526      -0.25460523      -0.54088993
C        6.84633834      -9.62127994      -2.49927564      -0.70511048       0.16543994      -0.05290174      -2.71778111       1.06639455       3.02911945
H        6.65730270      -9.17920475      -3.42736270      -0.27334754       0.05632604       0.01950266      -0.32028172      -0.08112195      -1.80780873
H        7.68959699     -10.22036976      -2.42512960       0.09987150      -0.23025442      -0.12613786       1.71532799      -1.12631792      -0.19766834
H        5.96631741     -10.20192934      -2.06967027      -0.00362901      -0.06924194      -0.11712794       0.92803397       0.56659080      -1.04179592
C        6.95915417      -8.85457476      -0.04790561       0.28739725      -0.92299993      -0.19131125      -2.38334427       0.63843786      -0.97154275
O        5.85601380      -9.03521955       0.51702748       0.33214088      -0.49855265      -0.68812911       0.68784666      -0.16008853      -0.36640307
N        8.11000540      -8.91072764       0.55604754       0.56021637       0.02213130       0.84451841       1.98703635      -1.16959780       1.79708662
H        8.99971264      -8.63498035       0.15333639      -0.15539391      -0.16651434      -0.29811146      -0.22892595       0.19143478      -0.29307759
C        8.20027191      -9.34923854       1.96257652       0.77097651       0.73346446       0.53098271      -1.99025697       1.35023812      -0.25172801
H        7.37230541     -10.09776345       2.06114566       0.04506367      -0.18963378       0.20615480       0.51264701       0.66154644       0.24335698
C        9.49169962      -9.98841289       2.31940298      -0.16887209      -0.44424993      -0.57842676       2.12406892       1.15949513       0.21515883
H       10.39249056      -9.26965633       2.36805585       0.06844927       0.04224602       0.11917348      -1.40047622      -0.82975116      -0.49911916
H        9.42496095     -10.33299366       3.34157266      -0.23721968       0.21090914       0.12884543      -0.14384146      -0.58193206       0.16555233
H        9.71013478     -10.78229363       1.59870138      -0.17248493      -0.03319491       0.01876481       0.08802649      -0.10084582       0.36257309
C        7.78828374      -8.13640658       2.91638692       0.50588225       0.54947501      -0.61751287       0.12202530      -0.70491030      -1.51951438
O        7.41738141      -8.36546383       4.05750349      -0.19354092       0.66279498       0.32012375       0.03032908      -0.32145798       0.46159831
N        7.72724761      -6.87304499       2.38421855      -0.00605183      -0.35868743       0.42814894      -0.35806488      -0.92809967       2.95877511
H        8.21308658      -6.58799131       1.61058259      -0.15085957      -0.03247840      -0.02415149       1.49770635       0.22022889      -2.59880464
C        7.41799650      -5.80393382       3.32727381      -0.05452950      -0.41894601      -0.06345570       1.53749711      -0.20876401       1.55216398
H        7.89066296      -6.07387240       4.34995597      -0.16274516       0.19314181      -0.09484778      -1.36801797       0.09916761      -1.41225160
C        8.11959029      -4.48375027       2.96368258       0.48034627      -0.28028717       0.39868260      -0.96396619      -0.00908361      -0.22234298
H        7.82170578      -3.70057533       3.70745180       0.40187262       0.14865507       0.23720414       0.20464316      -0.56763839      -0.82142521
H        9.18621340      -4.66319379       3.03909677       0.22595373      -0.05558405       0.12539939       0.25816114       0.16990542      -0.06879359
H        7.85128476      -4.21234818       1.92293101      -0.22139281       0.06658123       0.18305965       0.18352773       0.25894233       0.55076621
C        5.91850129      -5.71563813       3.40277812       0.51085834       0.33930616       0.27819473       1.17922911       0.78504806       2.17256600
O        5.32921501      -5.49288280       4.45307356      -0.70103279       0.14896649      -0.32313058      -0.40319568       0.29264341       1.14358791
N        5.29420411      -5.82091279       2.27023092      -0.60586837      -0.27242964       0.78355177      -0.61698268      -0.87299807      -2.95328011
H        5.82009912      -6.18330809       1.48473853      -0.03287853       0.22745821      -0.01351365       0.01170721       0.08221748      -0.16950642
C        3.87530097      -5.88809361       2.21847490      -0.76082186       0.25328780       0.25603264      -1.51954354      -0.34575551       1.65473271
H        3.49484604      -5.01429054       2.78759757       0.16049634      -0.05303004      -0.06333790       0.07972124      -0.45656992      -0.20879867
C        3.24988307      -5.87674654       0.86058085       0.44475214       0.32644657      -0.10919065       0.91083340       0.88734210      -1.53803815
H        2.24786836      -6.18675189       0.98444400      -0.01355924      -0.10585399       0.01943699      -1.21293563      -0.37259951      -0.08740635
H        3.22675215      -4.85957944       0.43659131       0.09673056       0.16950932       0.14312714       0.01486482      -0.14947356       0.26961543
H        3.71487911      -6.47045232       0.05041912       0.24073011       0.03827333      -0.02138990       0.02395174      -0.20996068       0.75404467
C        3.27353513      -7.10405472       3.07859096       0.51810803      -0.21329184       0.13740194       0.54136779       0.15053289       0.23334552
O        2.33937770      -6.96449677       3.86226747       0.94202654       0.43211162      -0.42992780      -0.45151987       0.74161311      -0.06744783
N        3.88127002      -8.29910101       2.98793201       0.19297281       0.24269326       0.11812351       0.03240139      -0.02471545      -0.86964512
H        4.54821103      -8.42888442       2.25068050      -0.18372523       0.21388092       0.12721495       0.46957726      -0.28064481      -0.36067216
C        3.51970139      -9.44795858       3.81494082      -0.37596295       0.52982975      -0.13670141       0.91957314       0.22048867       0.19596377
H        2.40777676      -9.64477299       3.86329383      -0.23119564      -0.17139632      -0.12155931       1.14631757       0.18953084      -0.51321030
C        4.34711501     -10.68060249       3.31293111       0.28173751       0.08556530       0.47153747      -0.86187006      -0.81455542       0.89555565
H        5.46250955     -10.59274723       3.42126866      -0.23811863       0.21510517       0.12136779      -1.06364565       0.42625807      -0.39994926
H        4.08857990     -11.54578543       4.00715561       0.11482815       0.10157817      -0.13105410       0.10034643       0.87637768      -1.01127380
H        4.00389462     -10.91323893       2.26583266      -0.22286376      -0.23095290       0.04384139       0.68799251       0.06868316       0.98803016
C        3.82037389      -9.07172647       5.29157573       0.29407986       1.20113400       0.65125415       0.78041865      -0.33910855      -0.99553448
O        2.98034515      -9.41181013       6.09663383      -0.86607970       1.32770443      -0.28749695      -0.87287217      -0.14839487       1.59136352
N        4.96834121      -8.41676105       5.59852076      -0.22309567       0.08915346       0.10148203      -0.45162040       0.10206070       1.39377369
H        5.69652275      -8.32235563       4.91370019       0.02172112       0.14089199       0.35516638       0.32422643       0.17817866      -0.21695221
C        5.26692515      -8.00678489       7.04149043      -0.53832856       0.39488867       0.46540396      -0.51001782      -2.37596440      -1.76783251
H        5.31484266      -8.97037467       7.64811281      -0.19736910       0.03646443       0.23615823      -0.04204101       1.26239687      -0.52458752
C        6.49459129      -7.16606188       7.12781481       0.34402116      -0.02423539      -0.74469282       1.14216109       0.69818518      -0.68945834
H        6.35776931      -6.27153946       6.51391782       0.27647517       0.04118932      -0.02626847      -0.34496036       0.25318379       0.28438691
H        6.54269734      -6.90061975       8.17498822      -0.10470184       0.03376733      -0.42761934       0.59636612       0.29034310       0.23673051
H        7.46639102      -7.51374282       6.71203696       0.02377347      -0.03407306       0.11058727      -0.71959116      -0.68738656       0.63765421
C        4.15363604      -7.15049453       7.60379841       0.05158583      -0.23372273      -0.06158048      -0.30552971      -0.56142633      -1.31164157
O        3.92992208      -7.15231330       8.78495208       0.63681029      -1.44899173       0.61148215      -0.27169066      -0.06205937       2.38504532
N        3.43237630      -6.41459023       6.73173630      -0.17138595      -0.60491431       0.53127966       0.96820224       1.28344607      -1.12721800
H        3.91860773      -6.22791111       5.82616002       0.02104792      -0.03652372      -0.17978065      -0.71703292      -0.21394326       0.74995022
C        2.59827269      -5.30364800       7.27244380      -0.86838158      -0.86220431      -0.01602939      -0.28737413      -1.74803993      -1.94572133
H        3.02421764      -5.04026603       8.22797753      -0.04763650      -0.17521783      -0.13818970      -0.42594746       0.11166601       0.51866956
C        2.63857563      -4.15414588       6.27659630       0.05649635      -0.65309190       0.03132133      -0.90598931      -0.38786492       0.22680453
H        3.68766298      -3.86978459       6.19817635      -0.12609563       0.11853481       0.32022340      -0.19146494       0.17926777      -0.84769250
H        1.99768004      -4.35927827       5.36821610       0.10231515       0.03976815       0.24760337       1.43712304      -0.00210795       0.55840115
H        2.09838115      -3.38908870       6.78634980       0.01562011       0.17824560       0.04005498      -0.27380104       1.09163079       0.30441635
C        1.14921934      -5.83279313       7.35101848       0.53323029       0.67390291      -0.61173802      -0.70341668      -0.43169385       0.84648413
O        0.36371599      -5.45173620       8.24454621       0.54539049       0.84938959      -0.44403115       0.73583120      -0.26182821      -0.93313000
N        0.78511735      -6.77757961       6.39532398      -0.00401201      -0.89537690       0.67880598       1.75127748       1.79882943       0.54523501
H        1.54842414      -7.10275711       5.79831802       0.14395414       0.08595213       0.41335691      -0.52665981      -0.03091711      -0.09426884
C       -0.47766823      -7.40728078       6.50362649      -1.36512269       0.33361909       0.19573326      -0.44205904       0.61629302       2.06184098
H       -1.10477719      -6.61496384       7.03427875       0.03234787      -0.01279762      -0.21676271       0.29375422      -0.95264259      -0.79621378
C       -1.10864628      -7.94026682       5.28381942      -1.34805166      -0.12073843       0.32025633      -0.78964065       1.06921238      -2.50858527
H       -1.46642441      -7.08199285       4.57047199      -0.09389217      -0.00232572       0.16173324       0.38401914      -1.59163756       1.35269531
H       -0.47703047      -8.59368523       4.65625318       0.01855885       0.11140299      -0.26863943       0.13049404       0.26098609       0.46001991
H       -1.91494259      -8.56013752       5.66352176       0.05513416      -0.06230824       0.14675581      -0.52641972       0.10565434      -0.39332628
C       -0.43933557      -8.52129629       7.56778695       0.26733775      -0.83456363      -0.73074923      -0.52569006      -1.04220838       0.58344950
O       -1.48281570      -9.10512020       7.94623372       1.47109911       0.36030882      -1.42606990       1.14038521       0.92484634      -0.49939859
N        0.78365631      -8.80967249       8.08238229       0.07900097      -0.36311482      -1.02830674      -1.31725082      -0.08119894       0.36676078
H        1.59635714      -8.37381007       7.68731236       0.03879016       0.06388653       0.04429559       0.29099538      -0.05562910       0.03238099
C        0.88506365      -9.68655821       9.24957562       0.30551965      -0.57981491       0.83811080       1.17636392       1.99569823      -0.14730152
H        0.03122890     -10.31296667       9.17624281       0.00560202       0.21151490      -0.08671759      -0.54333325      -1.09428738       0.14628519
C        2.25931288     -10.31365479       9.26245149       0.13047397       0.42799136      -0.19832668      -1.29067545      -1.61586557       1.34206199
H        2.35905760     -10.88704986      10.20404941       0.20093263      -0.31863814       0.00340714       0.06918205       0.54659084      -0.28295362
H        2.21244156     -11.05480191       8.51130147      -0.05499537      -0.04509805      -0.00941282       0.80458300      -0.57886072      -1.31109029
H        3.02509325      -9.57722436       9.18968398       0.04729753      -0.12478047      -0.04177666       0.63571423       0.41857665      -0.31336400
C        0.79242690      -8.92485764      10.56771195      -0.37044895       0.03526564      -0.80422359       0.34198978      -2.48004114       2.04930558
O        1.01359003      -9.54452420      11.64103482       0.33986903       0.30913582       0.43136558      -0.20268991       0.48994203      -1.03368359
N        0.55323727      -7.64859610      10.56087498       1.16508005       0.30202145      -0.15449816      -1.71010064       2.89820141      -1.50357418
H        0.15872285      -7.22121507       9.67870066      -0.09543862      -0.19339131       0.37475624       0.92658995      -0.52356012       1.35315656
C        0.49561435      -6.82493167      11.74470978       0.34552241       1.06488255       0.12651512      -0.26907323       0.64423767       1.42634755
H        1.43240567      -6.87667076      12.33630528       0.11683888       0.22276035       0.23903037      -0.24082039       0.06956794      -0.64144575
H        0.27855192      -5.79287199      11.43542590      -0.09321170       0.05959097      -0.21023151       0.41904520      -0.25995509      -0.04485736
H       -0.28761171      -7.03551744      12.53381654      -0.03702211       0.49503096      -0.02615990       0.37892088      -0.51904104      -1.15225444
