112
Properties=species:S:1:pos:R:3:momenta:R:3:forces:R:3 energy=-496.1427349018983 pbc="F F F"
H       -6.27357958       0.37451415       0.47875500       0.39995104      -0.16191818       0.00083715       0.02808772       0.26818776      -0.11358732
C       -6.80164358      -0.24450604       1.19410100       1.18464909      -0.24599649       0.54215257       0.90354165      -0.39474947       1.03177928
H       -7.76060718       0.17441553       1.44642430       0.14681438      -0.27329355      -0.03600403      -0.37471648       0.17568229       0.03095529
H       -6.18668566      -0.26526665       2.15192634      -0.22119757      -0.12355039       0.13664269      -0.70382884      -0.01952148      -1.08483374
C       -6.95338783      -1.67295848       0.70884899      -0.75453641      -0.24138640       0.30655517       1.51245941       2.27314552      -0.20616273
O       -7.67960521      -2.46100756       1.26814912       0.04791344       0.20288220       0.54358120      -1.02707276      -1.09577516       0.55990530
N       -6.10735596      -1.99551061      -0.32069610       0.63329496       0.08204580      -0.36111024      -0.76669144      -0.90396164      -0.11791477
H       -5.58006399      -1.26363034      -0.79361750       0.01334374      -0.02777023      -0.15274450      -0.11667928      -0.68807398       0.12255892
C       -6.20362404      -3.40931756      -0.71017194      -0.09882899      -0.59169266       0.12289058      -0.26700179      -1.68072242       0.69611239
H       -7.31911859      -3.70089505      -0.49976623       0.16066942      -0.14063870      -0.03585551       1.98540758       0.54148660      -0.64680422
C       -5.73742719      -3.87149397      -2.12039075      -1.78572462       0.19580589      -0.94853965      -2.10148352      -0.55445711      -0.12383161
H       -6.32470529      -4.82830413      -2.28914684       0.04374149       0.05633689      -0.06816290       0.50665542       0.96380524       0.06133174
H       -6.10199691      -3.17680930      -2.92623131       0.02556140       0.43230399      -0.09063892       0.75624625      -0.52766997       0.68011988
H       -4.70509059      -4.21767263      -2.18197233      -0.19305658      -0.01124047      -0.07184570       0.11826596       0.82774316       0.05683826
C       -5.31336826      -4.24391212       0.34809881       0.68333620       0.15796741       0.01003325       1.45847809       0.91578746      -1.11101298
O       -4.06073389      -4.29573919       0.18025848      -1.00145576       0.50846999      -0.10849825      -1.66115640      -0.26569415       0.25414817
N       -5.93264186      -4.79250014       1.39015715       0.69446005      -0.32818060       0.46549234      -1.44768919      -0.27583205       0.82842551
H       -6.94476519      -4.57446686       1.53831654       0.24866884       0.02134108       0.05837702       1.29103238      -0.19951005      -0.34968266
C       -5.21830845      -5.46149817       2.52585914      -0.35684022      -0.81049149       0.67762088       0.25323804      -0.25648245      -1.29734350
H       -4.26268233      -4.92859867       2.54053295       0.24578656      -0.13953759      -0.10996082       0.04346536      -0.11534503       0.49989092
C       -6.10151488      -5.35967568       3.74750952      -0.29079818       1.02950659       0.48603029       0.06030993       0.11310081       0.03399615
H       -7.07977289      -5.76520968       3.47279750      -0.22090411      -0.08093796      -0.04801051       0.18993721      -0.49251871       0.39943613
H       -5.66090752      -5.83899060       4.64454107      -0.29153319      -0.01145727      -0.02485099      -0.41397513       0.09277855      -0.64786673
H       -6.30965025      -4.31729060       3.96187650       0.33031847      -0.21973814      -0.11166342       0.26656289       0.37460726       0.17640405
C       -4.96459718      -6.97496836       2.11660284       0.18507028      -0.77858914      -0.02722307      -2.84567180      -0.07001702       1.08399134
O       -5.80028701      -7.82816442       2.51489446      -1.40846806      -0.08483039       0.58523777       2.01115237       0.91309637      -0.79260530
N       -3.96811350      -7.14545651       1.24342974       0.46561414      -0.53958727      -0.88645603       1.44238291       0.53797379      -0.46101967
H       -3.58979628      -6.29748707       0.80742328      -0.12273447       0.04459423       0.29543177      -0.28464806       0.15178188       0.55682826
C       -3.68541623      -8.33121975       0.48225913       0.54050782      -0.29561427       0.28504711      -2.20207727      -1.81874088      -0.86198134
H       -4.48825398      -9.08568504       0.84447286       0.01177250       0.07344931      -0.06164963       1.61962925       0.76171866      -0.59560067
C       -3.93132685      -7.99312142      -1.01388869      -1.25064063       0.33966194       1.00730043       1.57040205      -0.27767193       0.89898406
H       -3.74915553      -8.83198192      -1.63418718       0.10766720      -0.13916501      -0.43961239       0.65461534      -1.06847237      -0.50966148
H       -4.92224018      -7.77728661      -1.21933423       0.03261464       0.12997956       0.02823328      -2.07502603       1.05152275      -0.06149152
H       -3.24262076      -7.19731163      -1.30791405       0.09254987      -0.11743272       0.02606676      -0.23789082       0.13776131      -0.11048729
C       -2.25313984      -8.91426722       0.47904224      -0.37564316       0.06694367      -0.33585346       0.08876550       0.62800393       0.88650393
O       -1.94977114     -10.06943386       0.19944513      -0.16284561       0.19652506      -0.58519920      -0.64884824      -0.15765201       0.09857197
N       -1.32470163      -7.98050174       0.76747688       0.10786816      -0.17463388       0.86946539       0.59376254      -1.32954015       0.53135860
H       -1.54008951      -7.02979458       0.80770595       0.04421903       0.20893003      -0.20777819      -0.34450828       1.64587345       0.49022911
C        0.08976484      -8.31838305       0.91572991       0.06984295       0.97255935       0.09692824      -1.36820366       0.10168383      -1.79799327
H        0.11581247      -9.25921122       1.40125342      -0.09720268      -0.07321907      -0.19877979       0.19323337      -1.08496424       0.62176489
C        0.59906428      -8.49907354      -0.50436686      -0.25363946      -0.58125920       0.96706091       1.59202546      -0.56689084       0.02583884
H        1.64826009      -8.76079161      -0.54539868      -0.08418556      -0.11513685      -0.20396669       0.60658752      -0.21406345       0.31081441
H        0.11857323      -9.33954506      -0.96389265      -0.25091347       0.17522680      -0.13151708      -0.64052562      -0.26300596      -0.22665944
H        0.56454121      -7.63865319      -1.13899762      -0.17799053       0.22715727       0.04653749      -0.59221655       0.81264676      -0.15393457
C        0.78214542      -7.26036482       1.69237737       1.39934836      -0.59718136      -0.34238121       0.56497954       0.96725630      -0.68340682
O        0.22757281      -6.19455473       1.91890810      -0.00661217      -0.07491857      -1.22585057      -0.62528355       0.73179197       0.78901378
N        2.08849779      -7.46743995       1.94470125       0.29992241      -0.39411045      -0.01641972      -0.40412754      -0.68768808       0.87563321
H        2.56930569      -8.10683814       1.31489469       0.25373040       0.24678902      -0.30040520       0.34123480       0.09257118       0.49412923
C        2.91124101      -6.48208553       2.61179710       0.39740981       0.57314836      -0.83675525       0.86591127       1.06333266      -1.59221550
H        2.67030718      -5.51663308       2.17250629      -0.02195543      -0.30384168      -0.03502801      -0.32299023       0.45480328      -0.36269457
C        2.76896125      -6.27558746       4.08530711      -0.59999146       0.40219588       0.29509238      -1.51661298      -3.01050004       0.00833258
H        1.71841989      -6.19461022       4.25321108       0.11100935      -0.08564998      -0.10965221      -0.96913972       0.28326356       0.27981934
H        3.04015405      -7.18565643       4.61354618       0.06742131       0.39212043      -0.18178505       0.33355667      -0.17056962       0.19763139
H        3.20684866      -5.46931813       4.56463061       0.09596747       0.13196719      -0.00903918       1.23422331       1.74124523       0.29432740
C        4.32114068      -6.72915100       2.09196999       0.55023257       0.55159005       0.67237514      -0.80260375      -0.10799033      -0.06300068
O        4.46222310      -7.48575756       1.11822941       0.19929763       0.21849763      -0.08597266       1.03613685       0.24010579       0.62800333
N        5.27502062      -6.07521741       2.77300600       0.97139627      -0.12170021       1.17457060       2.30884206      -1.10045779      -1.12780008
H        5.16202978      -5.24667848       3.30766620      -0.07660025       0.09670965      -0.06415590      -0.62178241       0.54573786       0.75071410
C        6.72111951      -6.28897813       2.46770440       0.60606903       1.07278129      -0.85319702      -0.66293382      -0.29041323       0.14293701
H        6.81985079      -7.37272646       2.24702210       0.01921924       0.01699835       0.02705106       0.13091843       0.54889617       0.10925643
C        7.22330330      -5.44970198       1.29454549      -0.09713953      -0.24722050      -0.16778564      -1.10457970      -0.21113530       0.78538910
H        6.77660434      -5.78741035       0.37000719       0.12857113      -0.07734595       0.07863233      -0.13768743       0.20835293      -0.24854712
H        7.09675220      -4.38895604       1.51453033       0.23487745       0.06400372       0.08520833      -0.23218693      -0.02687887      -0.23179892
H        8.24857402      -5.65454992       1.31401443       0.01221753       0.04369545      -0.13752264       1.88831205      -0.09551076      -0.63265921
C        7.52774517      -5.83454066       3.71807198      -0.03784410      -0.29259204      -0.40757585      -2.08793580       0.90830046       0.54482087
O        7.06977464      -4.84128979       4.32039521      -0.02996749       0.50519538       1.11951358       0.66854022      -0.45517608      -0.17022784
N        8.57382181      -6.57949402       4.07128888      -0.54984326       0.57375549       0.38736127      -0.27156043       0.05018449      -0.73918753
H        8.76844168      -7.26273349       3.32787208       0.00496960      -0.00230342       0.03160444       0.74076570      -0.17947385       1.29104415
C        9.47917073      -6.31764499       5.21875125       0.97776954       0.26182301      -0.45418196       0.29221436      -2.32262258      -1.11092299
H       10.11925667      -5.53744228       4.88217985      -0.16141040       0.10492445      -0.41206690       0.66003820       1.10088637       0.32354666
C        8.71565772      -6.12060315       6.51242124      -0.24165595      -0.24946969       0.56239487      -0.41733169       1.10650875       0.34886974
H        9.41399729      -6.16954042       7.40102107       0.00204242      -0.12645314      -0.03533807      -0.98787349       0.19121954      -0.87816680
H        8.04139791      -5.20135558       6.48929744       0.02286765      -0.10490397       0.19893406       1.42416194      -0.78754319       0.10526967
H        7.97313227      -6.90603036       6.52926612      -0.22046311       0.05633614       0.25183468       0.03487669      -0.64373852       0.46623001
C       10.38934364      -7.65534002       5.25294572      -0.37572439      -0.04552589      -0.39757550      -2.43529348      -2.36338619      -2.86756545
O       10.08969253      -8.59065319       4.41700156      -0.93912524      -0.87867990       0.57730453       1.15276227       2.16427106       1.89849720
N       11.34267571      -7.79572862       6.15401955       0.03691890      -0.02493585       0.02590040      -0.54117697       2.20557152       1.22443845
H       11.42976935      -7.01859019       6.80728764       0.00222166       0.01394142       0.02781514       0.46407666      -0.35986312       0.14256166
C       12.23980987      -8.88937924       6.29795137      -0.54158078       0.30415181      -0.88662160       0.74409328      -0.52808622      -1.16923776
H       11.64503080      -9.77379013       5.97269415      -0.06529093       0.27879550      -0.04688480       0.66716121       0.07865981       0.65511319
C       13.42343955      -8.70978708       5.30014487       0.08560459      -0.47488158      -0.11614168      -0.25942303      -1.29051125      -0.96414843
H       14.11639959      -9.58670076       5.53885281      -0.09378485      -0.20504316      -0.15960892      -0.51727924       1.35998376      -0.75665403
H       12.96865211      -8.82246998       4.24287804      -0.13710520      -0.19417465       0.40869518       1.02493049       0.28971244       1.55100595
H       13.91374665      -7.71293789       5.44203447       0.01688188      -0.10508517       0.08950518      -0.32271507      -0.94051569      -0.13540472
C       12.91820753      -8.85294422       7.66915881      -0.22271100      -0.41330997       0.33836882      -1.73268322       0.92934064       1.18715851
O       12.81858581      -7.81455226       8.34826882       0.88526511      -0.70798848      -1.45039029       0.62284570      -0.27281642      -0.68899346
N       13.60609274      -9.93054884       8.08775908      -0.45528648       0.16400443      -0.08705238      -1.11325947       0.21049468      -0.60170534
H       13.27058607     -10.84555595       7.80423275       0.13579535       0.02733175      -0.11356920       0.34289561      -0.11750665      -0.10738413
C       14.45031949      -9.89976926       9.26308142       0.63042768       0.04751056      -0.44777957       0.03480428       0.93502383      -1.14963378
H       15.23184521      -9.11324476       8.98917637       0.16611145       0.00591834      -0.04919816      -0.73284999      -0.90350298       0.84905462
C       13.79496296      -9.56786578      10.59868858       0.86229097       0.49799370      -0.31901897       0.51154348       1.77780530       1.79606419
H       13.72500923      -8.43219045      10.73213326      -0.03811000       0.14798075      -0.08541636      -0.52122022      -1.56524208      -0.58495028
H       12.86466115     -10.07326266      10.92398160       0.07557186       0.15177982      -0.01812255       0.30773128       0.22982487      -0.89801019
H       14.48936450      -9.77622477      11.43732680       0.19217861       0.02871747      -0.01617022       0.09509768      -0.36218637      -0.50629679
C       15.07881593     -11.26141212       9.19927202      -0.54145321      -0.44491855      -0.33897074       1.55452386      -0.32685373       1.50122016
O       14.54885640     -12.29957331       8.83744623       0.43584810       0.40751989       0.99096578      -1.15765044      -0.28075907      -0.86185045
N       16.33388488     -11.28297285       9.67773397      -0.33719530      -1.78075521       0.91178808      -0.52519129      -1.20390894      -1.14426324
H       16.73142309     -10.52663743      10.14158535      -0.02836693       0.08743895      -0.05101814       0.86342297       1.69107531       0.84267848
C       17.10581779     -12.49453845       9.73424567      -0.98365677       0.26399224       0.20723384      -0.59960303       0.09533791       1.52216765
H       16.41742285     -13.33379264       9.90946464       0.03854737       0.44914355      -0.19161118      -0.09387826       0.21440795      -0.03242105
C       17.86054916     -12.76304942       8.46773588      -0.19493653      -0.09606875      -0.28011259       3.06090987      -0.35292762       1.16988064
H       17.34294521     -12.35781377       7.66438393      -0.15983498       0.04560503      -0.02385654      -1.29912626      -0.09559086      -1.72582390
H       18.81386584     -12.19652402       8.43550618       0.12336248      -0.09851264       0.04126628      -0.29891709       0.02213568       0.32059674
H       18.21881039     -13.81227627       8.39700884      -0.11531868       0.07524295       0.06639861      -0.76382202       0.46718341      -0.32778048
C       17.95936076     -12.31568501      11.01198551      -0.01009124       0.33352439       0.99997286       0.58214658       1.68518418      -0.78863079
O       18.35791434     -11.20367233      11.41753308      -0.65932987       1.59646466      -0.52888179      -0.58024500      -0.98912012      -0.46322900
N       18.26635732     -13.46864729      11.56029852       0.51076021      -0.09398507      -0.00334907       0.96560185      -1.24465088       1.51296948
H       17.94733026     -14.29271922      11.11939466      -0.14786973      -0.14495823       0.09366171      -0.55749159      -0.72317254      -0.57167654
C       19.26857837     -13.71118330      12.58705322      -0.01335594      -0.65919238      -0.52139905       0.49494159       1.42736013      -0.73304374
H       19.69102306     -12.74569695      12.90533560       0.28786215       0.09561611      -0.22159184      -0.31497100      -0.41141476       0.04008090
H       18.91812644     -14.29724060      13.39070245       0.18434268      -0.20133903       0.13222192      -0.91142548      -0.29545291       1.16440873
H       20.05470035     -14.30713920      12.17524769      -0.03781546       0.09745150      -0.07781815       0.80231786      -0.26771725      -0.55984553
