112
Properties=species:S:1:pos:R:3:momenta:R:3:forces:R:3 energy=-497.96932112680105 pbc="F F F"
H        3.03825606       0.37595344      -3.42134012      -0.01732200      -0.06863370      -0.11287659      -0.08992727       0.27290799      -0.18860399
C        2.11590269       0.57531974      -2.87431197      -0.05169504      -0.16272505       0.24619660      -0.09898649      -0.07301858       0.59457038
H        1.42932697      -0.25136105      -3.13879818      -0.11241462      -0.26303448      -0.14007125       0.19814543       0.31940909       0.21882954
H        1.62417111       1.53946446      -3.18822941      -0.18558313      -0.01981155       0.02197674       0.64745981      -0.86460228       0.49710942
C        2.50167167       0.42973024      -1.37042351       1.07738137       1.81273955       0.39422242      -1.31885203       1.25494359      -0.34746359
O        3.30934469      -0.38037146      -0.94894636      -1.53954356       0.11139311      -0.04625051       0.25653845      -0.74669930      -0.26144590
N        1.82480024       1.24687431      -0.47545584       0.05820811      -0.14800018      -0.04780950       1.15868336      -2.17803955       0.45452438
H        1.34452057       2.02119127      -0.84121864      -0.14036342       0.17909799       0.30972866      -0.73562375       1.12342938      -0.11745632
C        2.23505927       1.13873905       0.95480345      -0.62359696      -0.18126321      -0.41845944      -1.49995255       2.71913920      -1.07230879
H        3.23220722       1.45515551       1.02901023      -0.22009703       0.23067439       0.15253780       1.75329123      -0.20310610      -0.02582064
C        1.48545005       2.20302642       1.80993687       0.69621083      -0.19116720       0.35551153       1.36174907       0.73494978      -2.16036578
H        0.44653114       1.99964723       1.75515594       0.21889264      -0.21007217       0.03220289      -1.16533715       0.20412729       0.08436243
H        1.84763973       2.04685636       2.79754772      -0.12149986       0.16327904       0.05917086       0.17073828       0.37261343       0.98206375
H        1.76907984       3.24005496       1.37946197       0.17982426       0.22127000      -0.29811739      -0.64959734      -1.53845223       0.99583138
C        2.07314594      -0.18218475       1.58116793      -0.05018577      -0.45100449      -0.72242929      -1.96805373      -0.04428443      -1.61106458
O        2.93640256      -0.65004972       2.26142632       0.07016146       0.02946464      -0.82782591       1.57418056      -1.36348278       1.82669022
N        0.84249241      -0.75094479       1.37383624       0.68271689       0.47140525      -1.48260831       0.27003310      -1.79693577       0.97484959
H        0.23266605      -0.37461029       0.69201523      -0.02837938      -0.13754655       0.29015137      -0.49996135       0.47302726      -0.63410326
C        0.46639660      -2.04721081       2.01468572      -0.30653627      -0.47720797      -0.07120202       0.68679551       0.88551883       1.23642059
H        0.68665608      -1.91857625       3.12602622      -0.08803702       0.02683500      -0.23231207      -0.39477537      -0.17088825      -1.19770773
C       -0.99188824      -2.44865264       1.77776711       0.03753022      -0.04212593      -0.07521451       0.51339848      -0.43901323      -1.14280908
H       -1.10247360      -2.89533842       0.73732670       0.02307742      -0.07090991      -0.34130543      -0.07390528       0.36581972       1.36860584
H       -1.34713522      -3.09654884       2.56714423       0.09221917       0.09051520       0.18360389       0.28212024      -0.73795762      -0.12630233
H       -1.64648506      -1.62264580       1.87886513      -0.07006614      -0.11937467      -0.02536911      -0.57014420       1.24573702      -0.21025289
C        1.31278296      -3.23608326       1.60316809      -0.25109784       0.42033710       0.34700610       0.50430627      -0.40687144      -0.98283003
O        1.28321093      -4.28467716       2.26786062       0.87653030      -0.71878815       0.38141394      -0.03324953       0.68026139      -0.10971328
N        1.97854092      -3.17595534       0.40480595      -0.41232119      -0.02043808      -0.94243159       0.61622688      -1.35946083       1.23205395
H        2.08172212      -2.33234075      -0.11087321       0.21532411      -0.08613948      -0.08449615       0.15712183       0.80241265      -0.23250029
C        2.70340544      -4.39589221      -0.03698779      -0.18293017       0.12383086      -0.60141452      -0.45927954       0.04243930      -1.26379149
H        1.92930750      -5.14831543       0.00911716      -0.12248449      -0.03841660       0.02776282       0.03900612      -0.65059389       0.15164530
C        3.15733279      -4.28098759      -1.50945894      -0.06089167      -0.50145440      -0.42019116      -1.00736572       0.65799373      -0.59017940
H        3.89448866      -3.46142726      -1.57847441       0.19007523      -0.18353053      -0.09762260      -0.20990819      -0.31385167      -0.26057206
H        3.60907799      -5.22947384      -1.84868943       0.27012559       0.05857713       0.13707040      -0.16120714       0.44717859       0.26623301
H        2.26517743      -4.04182446      -2.20534157      -0.00506216      -0.09968457       0.00362935       1.34923527      -0.32253487       1.09435493
C        3.87868090      -4.95020192       0.80331721       0.26029758      -0.37382010       0.73570726      -1.40410274       0.18826577      -0.18502739
O        4.10215344      -6.17155529       0.76668385      -1.31946342      -0.36662428      -0.00125249       0.22646513       1.33013558       0.44128962
N        4.46852392      -4.01643140       1.59329335      -0.06507549       0.41477932      -0.65598441       0.99845453      -0.99973315       1.07626945
H        4.35704537      -2.99950256       1.42979504       0.01005737      -0.04461228       0.04969272      -0.17353314      -1.07869675       0.30827878
C        5.30368367      -4.47738608       2.72133474       0.17672634      -0.89136511      -0.44485295       0.78890313      -0.74427659       1.05677919
H        6.12378962      -5.22584913       2.49036863       0.19032001      -0.09060576       0.00990047      -0.74171536       1.00399346      -0.77231711
C        5.89492342      -3.31039556       3.48901280       0.54495932       0.76510293       0.62276061       0.99386034       1.04445339       0.32371818
H        5.05801063      -2.70499886       3.85579896       0.07977535      -0.34210451      -0.22122175       0.11805459      -0.04858159       0.35316085
H        6.49885163      -3.72687891       4.35776491       0.22293286      -0.12111919      -0.09391016      -0.73188844       0.73569904      -1.06708139
H        6.51502789      -2.55814476       2.89508461      -0.08257285       0.02499115       0.03223288      -0.51251961      -1.34416422       0.46196481
C        4.63430030      -5.37427371       3.85281085      -0.31746251       1.23134519       0.36636973      -2.60769052       0.11956655      -1.89278562
O        5.30060619      -5.98077710       4.66470644      -0.18577124       0.70580624      -0.83335285       1.56376662      -0.09211123       0.68868157
N        3.27832287      -5.64814210       3.80499188      -0.78969824       0.91318799       0.52456855       1.89466431       0.89972935      -0.50006734
H        2.61262467      -5.00694158       3.40947008      -0.08384292       0.09248969       0.10088512      -0.11816827       0.27045118      -0.76165460
C        2.74770823      -6.54922968       4.75897291      -0.36478112       1.06309688      -0.51017718      -1.12176254      -0.41837638       0.61336867
H        3.08988865      -6.27676804       5.74092926      -0.08590337      -0.15191487       0.07907057       0.06976671       0.16956609       0.75082107
C        1.22175354      -6.44885786       4.64580679       0.25152878      -0.01348095       0.56506009      -0.04489183      -1.56926079       1.83196786
H        0.73443269      -5.60330891       5.14679058      -0.25469453      -0.14328120       0.04350289       0.50972537       0.12646920      -0.41443967
H        0.95135368      -6.55748639       3.63161238       0.04584766       0.14477086      -0.03205528      -0.49883744       0.30591025      -1.22456012
H        0.81420278      -7.34091625       5.14722807       0.24322047      -0.21220650      -0.10638550      -0.02858272       0.19474905      -0.00099965
C        3.26514973      -8.00797388       4.65440492       0.28608116      -0.46482432      -0.20345273       0.74990126       0.11322794      -0.39791181
O        3.37561781      -8.73492740       5.65085376       0.70988561       0.87200010      -1.35990378      -0.39922378       0.42365011      -0.75400704
N        3.76566957      -8.33756960       3.41066774       0.14013946       0.06470453      -0.89924598      -1.44210523       0.90664158       0.90915563
H        3.43052716      -7.74314176       2.65213097      -0.13477053      -0.05652115      -0.09290845       0.53858798      -0.18027513      -0.04987508
C        4.40065670      -9.58794969       3.16938340       0.84760922       0.41453372       0.01128333      -0.47194608      -1.40217733      -0.99944194
H        3.71471854     -10.45486466       3.33456244      -0.03102806       0.16522229      -0.31220735       0.41657985       0.52683552       0.46950149
C        4.76388959      -9.68116632       1.68959613      -0.50396050      -0.20325853      -0.49333711       0.18108546      -1.09547860       0.11314795
H        3.86065590      -9.48617748       1.19954706      -0.20000634       0.03386762       0.28778052      -1.50640921       0.02717561      -1.15191786
H        5.37179701      -8.88263329       1.42006211       0.16203223      -0.10200811       0.12417205       1.42085068       1.54418296      -0.41391211
H        5.20852843     -10.60246390       1.25528114      -0.00178695      -0.16522749       0.01735427      -0.36536071       0.34001046       0.99918018
C        5.60388068      -9.76958330       4.00806008      -0.34687480       0.45326476       0.08294482       1.00153817       0.77505382       1.94946345
O        6.11505128     -10.86376223       4.17606013       0.41963502      -0.40187399       0.70633089       0.41470295      -2.00889100      -0.82488751
N        6.13291369      -8.72784557       4.70747831       0.66810237      -0.65492012       0.09825550      -1.53433170      -0.23886447      -1.48535710
H        5.61838844      -7.85017883       4.64834050      -0.04557808      -0.16436629      -0.01529361       0.70830989       0.22317996       0.32835129
C        7.28600644      -8.93138753       5.52306206       0.04378540      -0.35218320       0.70125878       0.51981049       0.82229024      -0.01999346
H        8.17649086      -9.02851077       4.91728349       0.08481218      -0.07896200       0.02579510       0.25239859      -0.55356436      -0.34829509
C        7.49802091      -7.68737291       6.34576934       0.11042007      -0.14264991      -0.14066793       0.95163027       0.34630065       0.96248457
H        8.48416903      -7.73668658       6.85336608      -0.00092347       0.01146094      -0.07124282      -0.67263796      -0.04230282      -0.14046279
H        7.48106734      -6.80567632       5.74006669       0.04342777      -0.15437891       0.01611170       0.11717005       0.50524168      -0.62914542
H        6.70825678      -7.53985933       7.06945491      -0.09419380       0.12651980       0.15341933      -0.19207945      -0.12712682       0.40100690
C        7.20672444     -10.08202527       6.49861815      -0.21018788       0.38861476       0.02355716       1.40187766       0.06260140       0.97451264
O        8.21717843     -10.59312580       6.99052130      -0.12657459       0.15596175      -0.01225423       0.25505518      -0.35194986      -0.40261602
N        5.99299617     -10.29834286       6.96157097       0.54830090      -1.01596947      -0.09861120      -1.39731345       0.64961209       0.23485018
H        5.31427248      -9.72119307       6.50235672      -0.04447496       0.08885769       0.18566441      -0.78304317       0.14768121      -0.08856927
C        5.49632970     -11.20041672       7.98670023      -0.41295388      -0.31347672      -0.67010859       1.56477700       1.11947789       0.60312368
H        6.02222622     -10.99629603       8.98946205      -0.00232453       0.03428541      -0.02324460      -0.64432477      -0.45169528      -1.40148136
C        4.01950459     -10.96086532       8.03406051       0.87980433       0.63401948       0.08468037      -0.60275013       0.34518677      -0.29565615
H        3.77632477      -9.91409742       8.23463824      -0.19221061      -0.10990225       0.16742092       0.17989777       0.00789752       0.03973773
H        3.69719252     -11.15498919       6.99979444       0.06351238       0.26676881       0.09539137      -0.61904259      -0.14894403       0.47004387
H        3.52407326     -11.56408780       8.78524861      -0.21122168      -0.31528845       0.05814644      -0.07982842      -0.34992509      -0.16702287
C        5.75891054     -12.62006133       7.56871674      -0.37562778      -0.49911206       0.26024254      -0.09824673      -0.84742971       3.12149597
O        5.68388634     -13.46829264       8.49991040      -1.21718123       0.10959437       0.50749024       0.21801192       0.20845995      -1.57316123
N        6.06025811     -12.83263743       6.29936672      -0.10801402       0.30693073       1.23094798      -0.12348019       0.71408151      -0.38876809
H        6.14075271     -11.98179308       5.71520936      -0.19520704       0.11949944      -0.01750305      -0.10315536      -0.81499032      -0.11778056
C        6.32746648     -14.13534540       5.78769604      -0.71056140      -0.12054761       0.28305835       0.25199143      -1.62104011       0.89023083
H        5.66911380     -14.86286450       6.37743776      -0.36375089      -0.18496930       0.04922119       0.48252418       0.85052749      -0.97072520
C        6.08027626     -14.18558171       4.30400666      -0.73852448      -0.11565145       1.61673290       0.39909571      -1.92546819      -0.33297225
H        6.54734005     -13.43548558       3.68944152       0.38669583      -0.07229910      -0.06044518       0.30062575       0.60893392       0.19721322
H        6.43212372     -15.16959525       3.91533612       0.23468250      -0.20650091       0.47278598      -0.23377306       0.55155938       0.34614822
H        5.02265168     -14.15587631       4.15899136      -0.10788326      -0.12660451      -0.23094704      -0.81279509       0.17753064      -0.37070726
C        7.73456991     -14.70538815       6.22451903       1.17819184       0.38457397       0.11940930      -0.69814171      -1.42803561      -0.92849759
O        8.05287184     -15.88009740       6.00236454       0.23098201       1.29180482       1.31517329      -0.35930094       0.55516569      -0.13705264
N        8.44968018     -13.83873607       6.89971913       0.26966766      -1.37321097      -0.38061532       1.20570005       1.10156739       0.96654905
H        8.02196649     -12.94382091       6.93120255       0.12444073       0.07061042       0.20191119       0.19368217       1.23570325       0.37853090
C        9.74943338     -14.08677488       7.53681414       0.25284814      -0.21945490      -0.21368792       0.93422662      -0.24224200      -4.32457005
H       10.06728018     -14.95098471       6.87153088       0.06248052       0.27525721      -0.18669226       0.22387919       0.44833159       1.29122052
C       10.77758888     -12.90028504       7.34391536       0.56724202       0.30785993      -0.95259018      -1.50975099      -0.57949068       2.44343448
H       10.21545322     -12.00599976       7.66211080      -0.01642911       0.07043251      -0.12489425       0.63790533      -0.02046369       0.00237985
H       11.68012145     -13.08669632       7.95542608      -0.12273604      -0.02742790       0.30222397      -0.72895283       0.10311775      -0.03874369
H       11.08681987     -12.77618304       6.36640701      -0.24381274      -0.04575790      -0.02042323       0.31834016       0.10825541      -2.24465739
C        9.68141562     -14.44418901       8.93188187       0.17383581      -0.32671959       0.43026968       1.35258965      -0.85056666       1.74891178
O       10.71320850     -14.65778655       9.58078234       0.12363582      -0.14450395      -0.36526110       0.47735097       0.13976415      -0.13962903
N        8.50815886     -14.52753439       9.52123504       0.28917381      -1.24561811       0.54444084      -2.16306356       0.55284126       0.59184446
H        7.64626060     -14.26765783       9.03462233      -0.15867967       0.19467460      -0.15341439       0.39509888      -0.09870966      -0.07713971
C        8.40754959     -14.45297579      10.95677330      -0.15091188       0.23931323      -0.10437651      -0.20483712       0.51880349       1.34970096
H        7.36616214     -14.72500899      11.20650372      -0.03767544       0.14916703       0.24691440       0.45368479       0.18289201       0.07464278
H        9.09465062     -15.16671356      11.47076211      -0.09586592       0.01319180       0.19419683      -0.39690111       0.64764828      -0.53952767
H        8.60313447     -13.37686318      11.35444732      -0.27406317      -0.19132842       0.40400677      -0.15895611      -1.69770278      -0.63259780
