112
Properties=species:S:1:pos:R:3:momenta:R:3:forces:R:3 energy=-497.6470352709268 pbc="F F F"
H       -3.97661729       0.99637588       6.45473568       0.38904960       0.10917073       0.20997393      -0.04913486       0.80152570      -0.66576360
C       -3.48960673       0.18799461       6.94394314      -0.11904508      -0.34671332      -0.67464612       0.44939479      -0.78885110       1.67332381
H       -3.60438124      -0.71634193       6.34573468       0.03703355       0.04951717       0.23929814       0.05382371       0.04913570      -0.00154418
H       -4.01870597       0.06664238       7.90349036      -0.00374883      -0.06456986      -0.02681390      -0.04956205      -0.25090231      -0.33683981
C       -2.00844526       0.46751842       7.22037361      -0.05841383       0.27722269       0.79024580      -1.18692388       0.02092692       0.48654399
O       -1.24885108       0.72335900       6.31853464      -0.03525366       0.00434025      -0.09465085       1.30680637       0.21647556      -0.98934833
N       -1.61226143       0.41981991       8.54340593       0.42830458      -1.07576694       0.24217894      -1.18901949       0.17931278       0.82641682
H       -2.43289953       0.33344160       9.20198539      -0.07733853      -0.09439143       0.10389444       1.78776389       0.21982119      -0.67963585
C       -0.32493748       0.97286791       8.99710677      -0.30694408       0.73197317       0.59340450       1.23109943      -0.45388242       0.85307221
H        0.00779826       1.77448047       8.34520414       0.10617305       0.00437765      -0.17830667      -0.39661552       0.33320127      -0.32102903
C       -0.33704218       1.50964313      10.49014504      -0.29007156      -0.63839908       0.16514287       0.53229095      -3.31434594      -0.46520522
H       -0.96137548       0.81663197      11.11101148      -0.04111150      -0.39893508       0.27875937       0.28150775       0.44447278      -0.47884913
H        0.69832499       1.34273039      10.88598037       0.02753639      -0.03361714       0.12721909      -0.85229483       0.87580211      -0.33633379
H       -0.75256865       2.47478011      10.57208638       0.08310167      -0.06053908       0.18625247      -0.09318705       1.25301650       0.06740552
C        0.93576545      -0.04179676       8.83858106       1.01516906      -0.55516553       0.12991603      -1.15848203      -0.95004477       1.03985400
O        2.09028087       0.22776545       9.16593907       1.07289127       0.27015343       0.78283583      -0.74403553       0.70106321      -0.44826831
N        0.59739083      -1.33702300       8.50932650       0.67895264       0.82204938      -0.76860295      -1.47897542       1.30072753      -0.74890339
H       -0.36480611      -1.57543205       8.21481302       0.28323741       0.02719001       0.24157618       0.79128054       0.58678437       0.41418441
C        1.56403842      -2.34751859       8.32656790       0.48074342      -0.70021264       0.67716788       2.41847502      -0.35087253      -0.94976346
H        2.60963974      -1.85436980       8.32791480      -0.16787896      -0.11675458       0.11548561      -1.47994312      -0.43019925       0.27924416
C        1.46069158      -3.39278263       9.38530938      -0.39331908       0.68820493      -0.53318097       0.05419849      -1.59569974       0.28968980
H        0.54631900      -3.97960628       9.20346357      -0.27455657      -0.04656475       0.04923523      -0.20990395       0.51360509       0.64196940
H        2.18545661      -4.20407223       9.30718144      -0.07740470       0.33405844      -0.16839412       0.50027097       0.30006111      -0.37114838
H        1.59179790      -3.00166608      10.39199408      -0.19237347       0.21911092      -0.02723596      -0.54883699       0.20905508      -0.01234136
C        1.51155705      -3.01116026       6.92417149      -0.13046772      -0.47605076      -0.60679167      -0.08307730      -0.31639826      -0.00389637
O        1.65271824      -4.24202169       6.78840323       0.30127949      -0.02313351      -0.54948276      -0.06475786       1.46976952      -0.26760183
N        1.41084599      -2.14103916       5.85973131      -0.85387166      -0.24817124       0.16735882       0.12057795      -0.39781878       0.22658171
H        1.28342420      -1.16041060       5.95713820       0.17420621       0.07462410       0.14906025      -0.18593000       0.71610768       0.64533303
C        1.58450027      -2.63628362       4.51273978       0.46561894       0.59507835       0.54168028      -2.48501148      -1.47523097       0.83357676
H        0.89762889      -3.48491566       4.47437634       0.08145144      -0.19670363      -0.02395171      -0.05845279      -0.27902598      -0.31739074
C        1.28616235      -1.70553128       3.38574755       0.53214245       1.04022326       1.15266094      -0.39054583       1.82362930       0.67456712
H        0.26827054      -1.31503367       3.44619138      -0.20207727      -0.35882419      -0.03034872      -0.03846050       0.04174914       0.24289869
H        1.97182151      -0.86764371       3.56526115       0.14184064      -0.11952172       0.06881159      -0.11748174       0.24014838      -0.74762041
H        1.37066465      -2.10906780       2.38771053       0.00842967       0.16736782       0.00916628       0.54004411      -0.42645225       0.04462465
C        2.88018682      -3.22325735       4.33073558       1.06859675       0.88090729       0.76696957       3.08745114      -0.93827290      -0.13407541
O        3.08008980      -3.98981762       3.39920124       0.15739085      -0.45375092      -0.83396846       0.27633568      -0.30943155      -0.61505066
N        3.92308954      -2.85279240       5.16639163      -0.72870263       0.70422513      -0.60576588      -0.58595935      -0.02466901       0.30950849
H        3.68579014      -2.34017970       6.01149840      -0.02086372      -0.00560472       0.03886548       0.38235093      -0.06784270      -0.35558290
C        5.28052828      -3.20698089       4.83089399      -0.23305053      -0.30297390       0.64120496       0.34568574      -2.14652181       0.94001119
H        5.38631456      -3.03339430       3.81355453      -0.11134790      -0.00336604       0.15656404       0.30742838       0.64060047      -2.12488734
C        6.38869591      -2.57483165       5.62745110      -0.20688514       0.57810323      -0.04370209      -0.37720755       0.39855225       0.73863954
H        7.32446486      -2.93476879       5.20210316       0.21134686       0.07542164       0.10010145       0.03111663      -0.05831493       0.32351685
H        6.39850901      -1.48635986       5.61773114       0.14873198       0.29518051      -0.06280667      -0.17633575       0.13906866      -0.19533570
H        6.25216205      -2.88583713       6.67609159      -0.03495191       0.06937151      -0.04696714       0.50549581       0.05521877      -0.17394729
C        5.65724707      -4.76491263       4.86525440       0.59285697       0.67201927      -0.42949868       0.98714775      -1.32726975      -0.72401778
O        6.73348052      -5.18795780       4.37500061       0.02677964      -0.22617952       0.55145573      -1.52382125       1.04351539       0.69123634
N        4.75233216      -5.63234722       5.42209321       0.52685612      -0.00161179      -0.58851266       0.65571647       2.91773198      -0.89495941
H        4.05949370      -5.06380334       5.86360937      -0.33400375      -0.10622464       0.12399912      -1.20700530      -0.50601154       0.56508510
C        5.01820031      -6.96850492       5.76651494      -0.64763584       0.11653074      -0.00591154      -0.73496662      -1.25040133       2.06419505
H        6.03426343      -7.00934322       6.23366100      -0.19481631      -0.19043409       0.16295043      -0.45289449      -0.43992107      -0.69729999
C        3.97566170      -7.43384418       6.82767813       0.26453589       0.56905204      -0.06447293      -0.06874572       2.05681402       0.55411918
H        4.15950761      -6.99868814       7.83835310       0.11578225      -0.26635063      -0.38539184       0.01052672      -0.14288733      -0.73404666
H        2.96633400      -7.09959410       6.51418740       0.10289626       0.18722417       0.15858062       0.42441913      -0.30714861       0.09907193
H        4.02409944      -8.48190352       6.90465733       0.02753244      -0.00469835      -0.11217422      -0.06801318      -1.28777376       0.09606284
C        4.85141638      -8.00792522       4.66318352      -0.41674829       0.54604706       0.10306709       1.43943036       1.43111864      -1.20245813
O        5.00709515      -9.19413940       4.87494865       0.39381944      -0.04332153      -0.58303614       0.01638454      -1.45985086       0.41806283
N        4.75505385      -7.50822190       3.41079942       0.33861744      -0.65480570       0.20528646      -0.54071831       1.02400820       0.15677932
H        4.61064140      -6.49828193       3.31150902       0.08727712      -0.22168229       0.19621938       0.10472759      -0.53624626       0.02525301
C        4.77413426      -8.31541103       2.22802255      -0.38014268      -1.10326618       0.31895130       1.39468106      -0.22149503      -0.79836225
H        4.09703990      -9.13411919       2.28243765      -0.12317309      -0.05072681       0.17746085      -0.56053256      -0.90468123       0.56922210
C        4.40257111      -7.53873059       0.99366126       0.43484042       0.11928641       0.05758319      -0.04514999       0.35724705      -1.59998449
H        5.26515949      -7.17999071       0.43822475       0.13363464      -0.15652264       0.22604768       0.40808466       0.64160875       0.48465082
H        3.98520311      -8.14220630       0.17147172      -0.08761273      -0.20369681       0.08420762      -0.39226738      -0.25516021       0.80752413
H        3.73345646      -6.71860742       1.21444398       0.00897926       0.12011747      -0.10804431      -0.23575794       0.22085119      -0.00246077
C        6.16804587      -8.93750639       1.90202193      -0.06068655      -0.38369652       0.44151278      -0.21578891       0.38104755       0.98972694
O        6.28979239      -9.69900736       0.95349137      -0.02242646      -0.84454126      -0.14603044      -0.11742556      -0.43652538      -0.36775874
N        7.23416118      -8.57453025       2.66775704       0.58680619      -0.30721793      -0.52489275       0.39422783      -0.61395736       0.13945274
H        7.12091155      -8.02060440       3.53042879      -0.06048215       0.26117598      -0.22965466      -0.02250206      -0.30714200      -0.90689581
C        8.54836520      -9.25070220       2.44480771       0.29571588       0.44440125      -0.19007050      -0.89550732      -0.29477967       0.97580395
H        8.87002210      -9.09482723       1.41435041       0.07674042      -0.05532561       0.02555457      -0.24034637      -0.30373691      -0.06889329
C        9.53189216      -8.55447680       3.37683536      -1.32533185      -0.36596731       0.40772794       0.50057421       0.04930120       0.01252833
H        9.34414934      -8.79105069       4.43426236      -0.20642841       0.03234875       0.05071820       0.13594599      -0.01504152      -0.24441587
H       10.54367011      -8.83850598       3.09127348       0.11063795      -0.15026187       0.17985213       0.09737191      -0.30259430       0.30863234
H        9.52233720      -7.45730730       3.26428193      -0.40639818       0.10694575      -0.19194744      -0.36541668      -0.34236328      -0.07209834
C        8.48258443     -10.88044233       2.71785258       0.49258360       0.06662817      -0.69020753      -0.81686244       2.30093520       0.13060325
O        9.29887805     -11.63383095       2.23558266       0.22976529      -0.95064141      -0.08188245       0.25216409      -0.47895348      -0.27325751
N        7.42506892     -11.26466958       3.50806319      -0.29309824       0.25543466       0.86296316       1.87528564       0.34416528      -0.58942447
H        6.95664419     -10.55623487       4.03327050      -0.12396217       0.08928977      -0.01245119      -0.42730951       0.56009632       0.11094776
C        7.23670740     -12.59943382       3.95920083       0.55982994      -0.57857546       0.53035447      -1.34824548      -1.36629899       1.00835526
H        8.01090533     -13.15651668       4.54619867      -0.02458323       0.00016968       0.37587181       0.14148474       1.10683798      -0.51772169
C        5.98768028     -12.50261708       4.89364745      -0.91464023       0.30988278      -0.08397203       1.13232886      -2.30692801       1.06501775
H        5.15412717     -12.15898045       4.38089895       0.25423566       0.07152676      -0.06665658      -1.59272964       0.70313615      -1.21980195
H        5.71939703     -13.51379863       5.32024782       0.16419301       0.09321722       0.05504403       0.42876999       0.99660711      -0.43497757
H        6.13825662     -11.81368505       5.71905032      -0.08829759       0.06182725       0.10065117       0.36304126       0.07113586       0.15006729
C        6.92398974     -13.58601946       2.82559492      -0.07002036      -0.38868182      -0.02028734      -1.51235642       1.55979075      -1.06290789
O        7.13831390     -14.76692664       2.92052685      -0.14974815       0.93943985      -0.87365400       0.84759541      -2.29970808       0.62798053
N        6.25191650     -13.09992357       1.73703508       0.22317775       0.00178057      -0.32319024       0.27094549       1.42131631       0.54066176
H        6.06931707     -12.09536214       1.76451449      -0.05703355      -0.25866927      -0.23370083       0.09053810      -0.28630538      -0.39971242
C        5.81771746     -13.88097607       0.57629708       0.13290004      -0.03742474      -0.11079861       0.12441794       0.92845594       0.31738396
H        5.35246035     -14.76167902       0.98653369       0.14251673      -0.11499216       0.01432193      -0.52699624      -0.50433180       0.04063799
C        4.78994725     -13.07926000      -0.27706092      -0.57238622      -0.29402841      -0.27303279       0.97539644       0.79981936       0.49079008
H        3.90183856     -12.89373692       0.32234753       0.16091503       0.21921637      -0.00502535      -0.22531197      -0.25893273       0.02811356
H        5.11182296     -12.03957667      -0.61729158       0.20892138       0.36758249       0.13179270       0.15552524      -1.45809136       0.35553475
H        4.57702783     -13.71835717      -1.11423239      -0.07601818      -0.21667110      -0.23728060      -0.32187959      -0.02597544      -0.52420768
C        6.98558073     -14.47473370      -0.22202848      -0.29227036       0.15704153      -0.24415217      -1.17995964      -1.12300668      -1.82378034
O        6.73698084     -15.34200479      -1.11912589       0.38313727       1.04286126      -0.23510899       0.59255981       1.77852462       1.90564903
N        8.20014565     -14.02233402       0.09960779      -1.02408065       0.92167066      -0.04147038       0.31805426      -2.11143882      -1.82736574
H        8.28378005     -13.39098464       0.83302805       0.03236326      -0.04629096      -0.09534585       0.39444809       1.35053317       1.43995065
C        9.38783373     -14.67950370      -0.47621206      -0.26861860      -0.34104049      -0.37983419       0.09956983       1.05247774       0.95023974
H        9.01670128     -15.06901268      -1.41964711      -0.14238166       0.01078669      -0.05489041       0.31089364      -0.10351727      -0.30558006
C       10.50520143     -13.59646520      -0.62447678      -0.35761117      -0.55921406      -1.33785430      -1.42939553       0.88913548       1.71270093
H        9.98786707     -12.62703954      -0.87423500      -0.31668345       0.21796528      -0.10572325       0.67079209      -0.99055328      -0.69289916
H       10.91421325     -13.29615490       0.38675624      -0.04074355       0.12754668       0.27364263      -0.11571411      -0.85966278      -0.85634637
H       11.28257840     -13.94477501      -1.27603548       0.12304395      -0.13152135       0.09601554       0.34891987       0.20518617      -0.34954099
C        9.89044450     -15.87831438       0.35754695      -0.63282387       0.04031657      -0.53007304       0.24001128       0.89916333      -0.81424273
O       10.94103783     -16.41275027      -0.00678285      -0.18489956       0.21904636       0.81454013      -0.08524062      -0.25730671       0.11538376
N        9.20370410     -16.26350644       1.43519429      -0.18910893      -0.81065896       0.53110195       0.20110859      -0.78658365       0.16147791
H        8.34837929     -15.84273667       1.78233419       0.11663182      -0.29689769       0.15678632       0.13882333       0.30103129      -0.34345181
C        9.67142289     -17.44592487       2.15292405       0.00491074       0.22910815      -0.61594936      -1.64905949      -0.20820144      -0.91138655
H        8.87957966     -17.63418515       2.87267497      -0.39675843       0.02249369      -0.24211916       0.32171599      -0.35892471       0.35142040
H        9.81132767     -18.31357201       1.48855319      -0.27197416      -0.06157284      -0.11975199      -0.31483290       0.31215920      -0.00322020
H       10.61277724     -17.27721933       2.57680690       0.06664523       0.08528932      -0.28962347       1.36586159       0.38090289       0.99255372
