112
Properties=species:S:1:pos:R:3:momenta:R:3:forces:R:3 energy=-497.4753412809407 pbc="F F F"
H       -4.97835238      -1.98262736      -0.78264917       0.18075735      -0.09727791       0.06226553       0.29016868      -1.04203275       0.90053406
C       -5.00986364      -2.82299055      -0.00194149      -0.66355728      -1.64109382       0.24518675       0.45829887       2.38604507      -0.08428075
H       -5.02419941      -3.74687096      -0.55236973      -0.19022568       0.11087981      -0.02753123       0.05502578      -0.42489930       0.12765614
H       -5.93463701      -2.59721280       0.53679247      -0.15133437       0.05954825      -0.17129246      -0.09375246      -0.50183492      -0.05898725
C       -3.79874632      -2.67744841       0.95734688       0.04001649      -0.56988588      -0.63760704       0.59484197      -1.74444479      -1.74863249
O       -2.72027439      -3.27691098       0.70185111       0.39571879      -0.05304403       0.28651269      -1.35087092       1.18157673       0.84900712
N       -4.03667313      -1.93920151       2.06942300       0.13710645       0.50283498       0.02904347      -0.50528531       0.84685040       0.44055637
H       -4.87361774      -1.31556833       1.99096343      -0.16143704      -0.14001693      -0.03458948       1.07804436      -0.84572522       0.38961548
C       -2.93276498      -1.45825076       2.92845293      -0.10359067       0.24772775       0.17391420      -0.39353446       0.38163031       0.82079069
H       -2.36304725      -0.71481125       2.35893284       0.26050697      -0.21410618      -0.08190481       0.48487841      -0.56696081      -0.02601517
C       -3.42529047      -0.67555213       4.17692406      -0.54471982       0.74784989       0.12843484      -2.06273701      -0.48548821      -1.73608635
H       -3.96805930      -1.34051096       4.85674698       0.30448943      -0.06436472       0.00367831      -0.14189930       0.26637822      -0.08152695
H       -2.56650144      -0.33125285       4.64569061      -0.03739408       0.06972389      -0.12914473       1.56368311       0.76395994       1.02201750
H       -4.03960673       0.19999845       3.85684285       0.09550843      -0.06308719       0.14787486       0.23930549      -0.62791294       0.39610337
C       -1.99805528      -2.52793891       3.55674341       0.69407322      -0.30987135      -0.78288007      -0.16447612       0.95301755      -1.45913181
O       -0.84337655      -2.18396248       3.79345819       0.16692144      -0.31305473      -0.44860733       0.11171369      -0.42788012       0.25556336
N       -2.51135335      -3.74972037       3.80773884       0.12200691      -0.07726503       0.07043419       0.97018480       0.58246100      -0.64516442
H       -3.47685245      -3.90976770       3.57485732       0.01562883      -0.17653806       0.06224859       0.00112138      -0.32915124      -0.19589969
C       -1.62127688      -4.82841331       4.20130131      -0.36996197       0.38050312      -0.51898335      -0.80735767      -1.19292078       0.25826650
H       -1.15592632      -4.51258494       5.12689823       0.19869653      -0.09729560      -0.14857905       0.31410640      -0.09582998       0.31454669
C       -2.50280353      -6.06406301       4.42571993      -0.49578055      -0.82294377       0.05226921       0.32785644      -2.39365606       1.96738362
H       -2.65165417      -6.66245163       3.50334458      -0.03107602      -0.03952919      -0.16608038      -0.31752860       0.69549711       0.26869550
H       -1.88855351      -6.82288408       5.06376659      -0.12539868      -0.05740653       0.26404309      -0.98585992       1.33635981      -0.91575541
H       -3.48931424      -5.93331168       5.01168899       0.10055490       0.09419873       0.04624361       1.52647934       0.22206073      -1.08919598
C       -0.45694942      -5.35748831       3.25925862       0.21369401       0.10020907      -0.08593017      -2.91421227       3.37024242      -1.40636306
O        0.21408574      -6.29334768       3.58868308      -0.37620579       0.34574370       0.17308000       1.49512110      -1.49501193       0.83215305
N       -0.36046347      -4.73258301       2.03498283       0.20838291      -1.40561295      -0.61572221       1.19920538      -1.66555231       1.68547086
H       -1.00506930      -4.04774632       1.74243315       0.05512637      -0.00133768      -0.28320818      -1.02869323       0.89624629      -0.41416007
C        0.56672533      -5.33020303       1.09950141       0.03518061      -0.31517130       0.21752114      -1.27020825      -1.27429254      -0.72162277
H        0.29749027      -6.42777229       1.01791199      -0.11854153      -0.02607113      -0.15083344       0.38354362       0.97292728       0.13909350
C        0.40036659      -4.73668898      -0.29982975      -0.56128023       0.47737740       0.75163270       0.94570290       0.13548908      -0.01025283
H        0.98822630      -3.84027862      -0.55695236       0.26437725      -0.14840804      -0.25534721       0.20287746      -0.46745166       0.41524307
H        0.58964229      -5.53127385      -1.00327269       0.22959954       0.28793859       0.22812976       0.29971364      -0.01123332      -0.43639276
H       -0.60129426      -4.43395483      -0.42300469      -0.00746716      -0.17466199      -0.20909556      -1.45187302       0.20283881      -0.13864893
C        1.96690136      -5.28510834       1.58496545      -0.18651448      -0.24948176       0.18713037       1.38393368      -0.92051054      -1.00069779
O        2.86107919      -6.04220177       1.17962114       0.09798616       0.08076640      -0.15636623      -0.51043344      -0.61042701      -0.23261701
N        2.29567652      -4.29526731       2.39182543       0.27157382       0.30797948      -0.05771894      -1.08863165       2.37174248       1.40080704
H        1.53843466      -3.66331496       2.73666140      -0.14968989      -0.08268514      -0.05394234       1.00699133      -0.59522766      -0.42926588
C        3.66201605      -4.06298675       2.73222624       1.05272105      -1.29951080       0.48404641       0.91887036       1.19120593       2.29057300
H        4.30685998      -4.26456991       1.91236603       0.23393462       0.03378364       0.11966739       0.35415011      -0.53346628      -0.89213528
C        3.92902956      -2.57226886       3.16193211      -0.02024389      -0.01862423       0.69302266       0.98473073      -1.34310681      -1.59320549
H        3.35249153      -2.43237208       4.04143388      -0.17471294       0.23756985      -0.08877305      -0.42455969       0.84047570       0.85073133
H        5.03226821      -2.52285630       3.36587676      -0.01221387      -0.13366176      -0.09238692      -1.08989950       0.19400220       0.00455689
H        3.66922301      -1.89002048       2.31399894      -0.06680581      -0.07922459       0.12751107       0.09386349      -0.42034364       0.88578119
C        4.17408820      -5.01343729       3.89799758      -1.11754906       0.93312242      -0.42541875      -0.36712183      -0.04838562      -1.60878762
O        5.37553309      -5.18098825       4.14160119      -0.34948990      -0.37889511       0.96991037      -0.39760042       0.42725273      -0.04411566
N        3.20549513      -5.78907659       4.43929683       0.87876520      -0.34979048       0.93959058       0.89643754       0.49853654       0.01682549
H        2.22788009      -5.59064737       4.23108561       0.18046516       0.02923266       0.07970029       0.27480139      -0.44328886       0.07740261
C        3.62890220      -6.81024196       5.36650577      -0.25471067       0.24971935       0.80030034      -1.24725053       0.31632143       1.35168297
H        4.34381568      -6.39641621       6.08689259      -0.08880609      -0.11435282      -0.17269807      -0.24544518       0.31858580       0.07855173
C        2.37028283      -7.32925649       6.10655789       0.44308784       0.08531821      -0.84405137       1.88484992      -1.04259301       1.33855096
H        2.18123169      -6.71860917       6.98911086       0.12353043      -0.10326769       0.12474495      -0.22085287       0.29750570      -0.19257379
H        1.52741353      -7.34500987       5.45402758      -0.01131982       0.23158019      -0.17000221      -0.64546233      -0.28378174      -0.40133947
H        2.63642092      -8.33419147       6.54303811       0.09889412      -0.06104260      -0.17805737      -0.57097178       0.76510257      -0.67643771
C        4.44488758      -7.92683522       4.79782891       0.45422397       0.43272654       0.02639330      -0.44555406       0.48956866      -0.01997331
O        5.05641094      -8.68435661       5.54431510       0.31761331       0.72145107       0.70625218       0.51073048      -0.67195713       0.69379064
N        4.50736941      -8.00239123       3.48462101       0.34887581      -0.09100318      -0.19091610      -0.46383598      -1.09922257      -0.80437256
H        4.02298525      -7.34341808       2.90293199       0.13436378      -0.10155429      -0.01914158      -0.39295187       0.28907681      -0.18255478
C        5.22367112      -9.08068084       2.83884711       0.24288621       0.10321636      -0.74679681      -0.45301897       0.54969505      -1.01126943
H        4.97372433     -10.08931435       3.15090970      -0.07840710       0.31551514      -0.18717446      -0.68729512       0.00686608       0.30559346
C        4.94429111      -8.87792926       1.29813161       0.18143409      -0.21698579      -0.33604184       0.50700703       0.34951400       1.54014294
H        3.85703186      -8.70024502       1.35095883      -0.16042609       0.19484751       0.06489897       0.37560884      -0.23515786      -1.10872860
H        5.48715600      -7.93360381       1.06562370       0.23374634      -0.03356131      -0.10297221      -0.56926569      -0.62536895      -0.40011401
H        5.29549184      -9.72666322       0.68034260      -0.07547223       0.10211382       0.18262075      -0.40805241       0.56188401       0.40588692
C        6.65848297      -8.95987420       3.13752183      -0.71587213      -0.08831694      -0.14588401       0.69674721      -0.68722854      -1.86557920
O        7.35412957      -9.94388900       2.86588901      -0.05463952       0.23066922       0.45090022       0.72708245      -0.49797768       0.63603431
N        7.14482441      -7.74220853       3.36588020      -0.46913763       0.94672393       0.23718851       0.79745916       1.30299371       1.19084732
H        6.47097028      -7.03682265       3.67584627       0.06819534       0.00599514       0.30418018       0.49716056       0.08454667      -0.15320414
C        8.60127281      -7.61880401       3.64216284       0.16466286       0.28852669      -0.35144662      -0.71710219      -0.82688480      -1.38906885
H        9.04637886      -8.21087882       2.75865386       0.27384136      -0.06021478      -0.02171743      -0.32777639       0.67644232       1.54923526
C        9.19046514      -6.18577677       3.60120145       1.27224932       0.26773400      -0.07696581       0.33049533      -0.28222529       0.82759842
H        8.68937557      -5.53124613       4.32009178      -0.07358873      -0.00047016       0.06116325      -0.13851155      -0.05406774       0.02607374
H       10.23269775      -6.31864202       3.99323024      -0.08164536       0.11758497       0.12091453      -0.69383821       0.29877547      -0.65717175
H        9.17374366      -5.64090663       2.62397489       0.08569276      -0.05255711       0.02765775       0.02370269      -0.94967518       0.60894200
C        9.02128512      -8.47262475       4.91211009      -0.29889728       0.16830592       0.67097120       2.40744696       1.00933996      -3.27417666
O       10.22049350      -8.76952646       4.86354043      -0.50807836      -0.45054495       0.83492229       0.56781401      -0.18403947       0.96312194
N        8.17726612      -8.94851373       5.77476883      -0.04802099      -0.87548845      -1.20007901      -4.41955746       0.77612980       1.14153431
H        7.14627286      -8.62424561       5.70964425       0.06007407       0.12995191      -0.11296057       1.98032345      -0.77842433       0.06397089
C        8.52601322      -9.72678050       6.95161273       0.21289688      -0.38851231      -0.24395600       1.40190086      -0.39264334      -1.52391378
H        9.54338812      -9.42309679       7.21832598      -0.02963703       0.29901831      -0.05861070      -0.06207969       0.76517566       0.52397756
C        7.54358995      -9.53842667       8.04006124      -0.36604259       0.92663177       0.28381333       0.06678843      -1.18212944       0.49945097
H        7.63526790      -8.51012610       8.24287851       0.11557520      -0.09123953       0.11203466      -0.67666450       1.48532203       0.57237097
H        6.49366350      -9.86393572       7.81048513       0.10162526       0.00372398      -0.00664019       1.09342085       0.25046344       0.27802688
H        8.03132139     -10.04152245       8.88190386       0.19433209      -0.11910964       0.21446195      -0.80465661      -0.25498939       0.19146548
C        8.95005839     -11.14873617       6.61224465      -0.76504348       0.88435142       0.59192722      -0.46857271      -0.19899036       0.78805061
O        9.46189601     -11.89176121       7.47087336       0.05646977      -0.60094697      -0.56055533      -0.73877283       0.54980493      -0.65197111
N        8.85886538     -11.43889964       5.32207335      -0.02336876      -0.52421683      -0.79632285       0.71269291      -2.77998688       0.43464466
H        8.31734616     -10.96041537       4.67985574       0.39188809       0.06239048      -0.38347790      -1.27615682       1.84414858      -1.14862016
C        9.23966310     -12.73544415       4.80556489      -0.43483348      -0.62526647      -0.25643321       1.35616635      -1.08690099       0.21206780
H        8.86302988     -13.57220529       5.42576979      -0.14384204       0.14331991       0.12965894      -0.27608576       0.44058326      -0.18744918
C        8.80693536     -12.82863765       3.36003521       0.01154971      -0.45326583       0.55037606       0.91304602       2.15220427      -0.73806564
H        9.31832449     -13.48162559       2.68909440      -0.04873867      -0.20357477      -0.20348775       0.91492666      -0.68639514       0.11946146
H        7.80491259     -13.06320589       3.23166799      -0.21418592       0.23264669       0.19048462      -2.17831994      -0.50428093       0.21041672
H        8.88451348     -11.80386533       2.90587474       0.00884507       0.16651846      -0.21977507       0.15427795      -0.81174530       0.30017828
C       10.77075490     -12.96512656       4.93968967       0.48171036      -0.44896876       0.53392283       0.08346867      -0.50082063      -1.04803533
O       11.25914697     -14.11340089       4.82953275      -0.11199536       1.16826891      -0.40616688      -0.73325229       1.82466011       0.19847704
N       11.50868046     -11.83822020       5.13566972      -0.78117691      -0.45236126      -0.08357568       1.70290154      -1.04385698       0.52632246
H       11.21038807     -10.89028915       5.22138220      -0.06179169       0.45192781       0.06336034      -1.32896035       0.36682272      -0.23529957
C       12.85428645     -11.93271103       5.69214612      -0.95912742       0.91453559      -0.23403718       0.60201136       1.45867331      -0.07880896
H       13.53206472     -12.47042984       5.08107375      -0.38759022       0.15875392      -0.25015656       0.29006444      -1.16263124      -1.01854733
C       13.54420079     -10.54969950       5.72221429       0.97146789      -0.38370471       0.09276805      -0.54734830       0.67110070      -2.97748216
H       12.99784818      -9.77528805       6.22063233       0.06675801       0.10157124      -0.18256070      -0.52219425       0.32344086       0.64527764
H       14.53283346     -10.60130073       6.11680929       0.07939868       0.04675990      -0.12696034       0.60319476      -0.29339461       0.44839735
H       13.64900361     -10.14027223       4.61954422       0.00899030      -0.19157774       0.09452770      -0.21106435      -0.91668437       1.91588852
C       12.95765478     -12.60032962       7.02540904      -0.48092330       0.18081647      -0.66233348      -0.73605753      -1.00657104       1.75081320
O       14.00436372     -12.62598580       7.69144969       1.08966939      -0.14490135      -0.61069251      -0.00050891       0.25631886      -0.63586499
N       11.85088536     -13.23473306       7.49609657      -0.19152724       0.55571055       0.87623005       0.78092281       0.72262428      -1.01055950
H       10.95317130     -13.18784028       7.02941258       0.04895886       0.19322229      -0.00305241       0.43568450       0.22576786       0.33692950
C       11.89186100     -13.93125840       8.72755190      -0.35971663       0.07023245       0.86523647      -1.27433967      -0.40494831       0.48437832
H       12.64765177     -14.71144887       8.73312499      -0.09127355      -0.28362614       0.04728896       0.18572810       0.04356101       0.19038602
H       11.96395160     -13.25478856       9.57184639      -0.06690038       0.23092566      -0.14058068       0.58369454       0.12633497       0.28686418
H       10.89088854     -14.36393454       8.82827799      -0.32537225       0.13025490       0.10593211       0.20534191      -0.36354264       0.11534551
