112
Properties=species:S:1:pos:R:3:momenta:R:3:forces:R:3 energy=-498.7780318962452 pbc="F F F"
H        3.71198031      -3.37468139      -6.06428884      -0.00005286      -0.12403167       0.01636377       0.41988677       0.57459742      -0.03838435
C        3.11485054      -2.59696040      -5.57401286       0.95723270      -0.85332632       0.90813499      -0.22024018      -0.49249212       0.87905603
H        2.13085853      -3.13434066      -5.57141095       0.10116173       0.06819461      -0.00226244       0.36892873       0.92867823       0.22035346
H        3.08410565      -1.62857608      -6.12964004       0.01778811       0.13825534       0.17257117      -0.05213866      -0.92866159       0.31517296
C        3.63528008      -2.44502479      -4.10016726       0.67818126      -0.49751919       1.05673032      -0.42739399      -0.48754813      -0.86646300
O        4.08560043      -3.39615416      -3.45255092      -0.55901001       0.36287083      -0.12790277       0.03813051       0.26344480      -0.31008184
N        3.51464213      -1.20308304      -3.56748495      -0.88350626      -0.07057393       0.62018584       0.19474809       0.77967236      -0.03744918
H        3.02733844      -0.49938583      -4.16424744       0.01305316      -0.07083466      -0.09492694       0.93032241      -0.58912572       1.05421871
C        4.08963196      -0.84167789      -2.22432506      -0.27339887       1.54164253      -0.15524037      -0.21108467      -0.87827650      -0.04426245
H        5.19235304      -1.13105115      -2.10264157      -0.32891555      -0.28943994      -0.02412829      -1.46351813       0.21663565      -0.60673850
C        3.93079723       0.64102750      -1.98889898       0.16998877      -0.06856908       0.47432292       0.16687227       0.57022644       0.21208903
H        2.98335929       1.09717534      -2.31353472      -0.05561423      -0.13987658      -0.29037145       0.31558422      -0.35318911      -0.41397423
H        3.92140373       0.80444903      -0.93545870       0.16602531      -0.00509982      -0.20432389       0.10123194       0.04843120       1.03815976
H        4.80777374       1.19365461      -2.32021121       0.08449221       0.14212569       0.10237346      -0.20828027       0.15295049      -0.53155012
C        3.36700208      -1.61570583      -1.07020430       0.64558056       0.37467609      -0.23877931       0.23124398       0.67887166      -0.26532140
O        3.80793071      -1.66214220       0.08929696      -0.34297009      -0.23706527       0.78335816       0.33601436      -0.17302326      -0.93452487
N        2.19982686      -2.19692004      -1.39207905       0.53433212       0.02007647      -0.04016417       0.46829554      -0.06013208       0.63395890
H        1.67700419      -1.99370547      -2.20915490      -0.40530720       0.02062246      -0.27879476       0.09312929       0.21634276      -0.91059827
C        1.54041040      -2.99259937      -0.38881269      -0.65410800       0.26246567      -0.46935963       0.22314713       0.66701402      -0.33193562
H        1.50626289      -2.33591513       0.50563021      -0.04094492      -0.19097433       0.32486205      -0.38502289      -0.96472461      -0.05117497
C        0.25874633      -3.44610422      -1.01392954       0.20860426       0.04773471       0.76819910      -1.81682267      -1.35612468      -0.01795090
H        0.52073552      -3.99210216      -1.94080669      -0.06179060       0.18980205       0.07171226      -0.15328695       0.01559946       0.37790571
H       -0.35855130      -4.14089764      -0.37340026       0.08818021      -0.07936236      -0.10391506       0.90558414       0.69213306      -0.50515525
H       -0.41914778      -2.65896431      -1.32932013      -0.25242313      -0.03926894       0.08466072       0.03557190       0.51378564       0.15469868
C        2.28503976      -4.27397457      -0.10928864      -0.13606960       0.54314538       0.03664074      -0.61938760      -1.24385468       2.90785740
O        1.94770350      -4.89737037       0.93812119       0.12857029       0.28185063      -0.34380484       0.40714574       0.45579607      -1.18307819
N        3.18940406      -4.74656495      -0.95348595       0.39374393      -0.39140301       0.82510468       0.46443523      -0.46470752      -0.90294265
H        3.51738192      -4.17557679      -1.69319231      -0.01555918       0.00352506       0.00201681       0.06558855       0.87596486      -1.11913958
C        3.95648314      -5.99431678      -0.80026757      -0.50170651       1.41826020      -0.31419107      -1.84829973       0.23377633       0.19546104
H        3.22070020      -6.78495800      -0.50542891       0.07024164      -0.09035923      -0.08845981       0.38609445       0.39780214      -0.47226028
C        4.69592245      -6.40604612      -2.07122237       0.05405203      -0.50128024      -1.28106331      -0.02012428      -0.57020736      -0.70384755
H        5.58829227      -5.80008433      -2.33283597      -0.01563263       0.16455120       0.31107985      -0.61707505      -0.05183776       0.36657157
H        5.05339770      -7.45647022      -1.92456968       0.09969909      -0.05387213      -0.10104380      -0.35415751       0.81283425      -0.18031370
H        3.98363008      -6.36334658      -2.94857004      -0.01162984      -0.11827045      -0.16990400       0.76879043      -0.13992494       0.93533369
C        4.75790774      -5.88396522       0.43689913       0.50230260      -0.78708584       0.68711583       0.98389813       0.54026514       1.04814123
O        5.18934952      -6.91531020       0.96747483       0.05569093       0.37126572      -0.25613294       0.17645641      -0.02348915       0.05473914
N        4.94370423      -4.65562762       1.01416932       0.03880698       0.05787243      -0.31278722       1.02335429      -0.99752106       1.39453784
H        4.59034100      -3.76709924       0.64958400      -0.05828412      -0.38345997       0.11821765       0.12824352      -0.49924641       0.09428882
C        5.65601440      -4.64816733       2.37903742      -0.46411774       0.18937881      -0.34020217      -1.15624680       0.40734762      -1.61301145
H        6.58021525      -5.24434411       2.27448453       0.00605749      -0.06304208      -0.06162243      -0.33727304       0.36287268       0.07328220
C        5.89945198      -3.17356799       2.70026501      -0.43896036       0.06521735       0.29960770      -0.90496969      -0.27034729       0.99398062
H        4.93721036      -2.61415533       2.79806957      -0.11324040      -0.00820864       0.17498952       0.61071675      -0.31609244      -0.76535130
H        6.27048871      -3.09815953       3.70748699       0.10908195       0.04811586       0.04191134       0.62526893      -0.11044663       0.45696887
H        6.61483672      -2.73625065       2.01952880      -0.01739252      -0.08025252       0.09836863      -0.07641635       0.28553602      -0.25538242
C        4.83294720      -5.35616300       3.47136942      -0.55214146      -0.17083065      -0.30624285       1.22708643      -0.68821736       2.30058884
O        5.39743738      -5.70105386       4.55000164       1.18318197      -0.62966900       0.88940980      -0.02756780       0.42079542      -1.28160794
N        3.54907978      -5.61741335       3.29495420      -0.92112101      -0.13533408      -0.79091928      -0.42801995       1.76574181      -2.56592104
H        3.22921771      -5.28855721       2.36982661      -0.16673487      -0.12764548       0.02186122      -0.70951375      -0.35994963       0.49288809
C        2.71373107      -6.40296789       4.13429422       0.21836006       0.17002169       0.82702444       0.59066976      -0.42924445       1.66393246
H        2.75478404      -6.07615271       5.22747679       0.08921501      -0.20991773      -0.21294010       0.30089723      -0.11083668      -1.34263892
C        1.25669496      -6.44837453       3.75679678       1.02617930      -0.43854909       0.75547750      -0.94417356       1.04640932       0.05379677
H        1.09671348      -6.71294668       2.71667780      -0.26695090       0.06775375       0.08963089       0.09042780      -0.11866591      -0.21868764
H        0.79027200      -7.21255978       4.39993783      -0.13039038      -0.01563527      -0.01102670      -0.00811958       0.47776675      -0.20728080
H        0.78220829      -5.43097749       3.90363694      -0.05410251       0.06137403       0.19409747       0.40514000      -1.15019182      -0.01383490
C        3.24940743      -7.82246206       4.18675259      -1.21321633       1.17890112      -0.42719376      -0.89764523      -0.83763720       1.07446041
O        2.93525010      -8.50949281       5.18456745       0.95333399      -0.39391994      -0.65538454       0.27849033       0.34420132      -0.19220995
N        3.94614301      -8.35872276       3.17232709       0.23142042      -0.28961872      -0.90738594       0.33157742       0.12490965       0.73390210
H        4.26457637      -7.77735358       2.40363273       0.27491385       0.00550511       0.01353953       0.26519107      -0.09600845      -0.14442656
C        4.52680596      -9.68122016       3.44736098       1.01610679      -0.47636065      -0.32477381      -0.22749382       1.22531316      -0.57773989
H        3.72387315     -10.23020025       3.84083440       0.15546994       0.16602024       0.28572674      -1.14776116      -0.88475074       0.92512085
C        4.91559664     -10.35985059       2.18048002       0.68040378      -0.98465296      -0.20830169       1.54090712       1.07763319      -0.40711154
H        5.74766626      -9.82353872       1.72777463      -0.15449713       0.17224785      -0.11286565      -0.30859079       0.68608025      -0.64377008
H        5.45503183     -11.22651412       2.40486177      -0.12563927       0.04894850       0.00962735       0.13255264      -1.96743417       0.56854286
H        4.10678057     -10.53081776       1.49485184       0.00403382       0.16711171      -0.01620862      -0.30147450       0.00175528      -0.22854659
C        5.59397788      -9.72952795       4.54937133       0.40425693      -0.74164032       1.02249307      -0.20381974       1.56621833      -1.65436083
O        5.99933369     -10.84149979       4.84246307      -0.26102922       0.43617723      -0.72981606       0.46568525      -0.57077377       1.10769722
N        6.06467586      -8.54409193       5.05773239       0.23950905       0.12307168       0.13719390       0.29589990      -2.33890436      -0.24062772
H        5.77298411      -7.62400018       4.76761422       0.08384440      -0.09920708      -0.34932918      -0.34639045       0.22878758      -0.32205676
C        6.95870886      -8.62028327       6.19694901      -0.21277836       0.51959413       0.37905264      -0.77434079       0.49917759      -0.48518661
H        7.82221015      -9.31132495       6.04883479       0.17715285      -0.20110793       0.01653345      -0.87605880       0.22500964       0.00540785
C        7.46406738      -7.23129796       6.42718074      -0.54520980       0.11756687      -0.51426261       0.77868380       1.11111292       1.42324938
H        7.73601581      -7.26207292       7.53216778       0.41458110      -0.08106972       0.10002326       0.10821770       0.83819647      -1.37325517
H        8.33415396      -7.04011051       5.78314345      -0.06037696      -0.03393140       0.13351193       0.00943108      -0.02721664       0.41965092
H        6.74145148      -6.40871613       6.17308576      -0.01173411       0.23781882       0.23781397       0.40386533      -0.97617671       0.63883749
C        6.19181526      -9.10917056       7.42404182      -0.53288745      -0.67250714       0.65458011       1.76521305      -1.62641879      -0.17355485
O        6.85265356      -9.66659853       8.31671738       0.42100248      -0.37447302      -0.36821374       0.14178498       0.49934052       0.55688071
N        4.87610362      -9.14790633       7.40599694      -0.30307936       0.27549594      -0.05794707      -1.00941166      -0.68390623       0.95033895
H        4.37571659      -8.83176773       6.59612853      -0.06577351      -0.03377360       0.05600098      -0.51999090       0.19621801      -0.42001762
C        4.14895184      -9.91914409       8.44326799       0.01721706       0.55389470       0.45223063      -0.01326849       0.72075343      -0.08804134
H        4.26297448      -9.44079935       9.41182078       0.19615005       0.02908999      -0.27233275      -0.18902559       0.57952958       0.07445295
C        2.69501111     -10.09630571       8.02267035       0.81774418       0.63718086       0.35431149      -0.30866167      -0.98630899      -1.45114418
H        2.71144976     -10.54606211       7.01067312      -0.05862063       0.17694400       0.02358379       0.20640435      -0.22754281       0.29779638
H        2.20522142     -10.85935015       8.64781318      -0.17814568      -0.12160770      -0.00539852      -0.03541202       0.70327765       0.05576632
H        2.07555639      -9.22445379       7.76464738      -0.08006791      -0.00823073       0.05356074       0.39032114       0.17133415       1.02373763
C        4.70747389     -11.30187552       8.79957887      -0.06859765      -0.09225077       1.14497802       0.19699724       0.14786763      -2.84314094
O        4.55743162     -11.73701767       9.90382844      -0.03011547       0.00870585      -0.72004043      -0.62954322      -0.70827283       2.71072451
N        5.21160805     -12.07559374       7.80031554      -1.38997391      -0.09697872       0.60369702       0.26120401       0.25149657       0.18867634
H        5.51675293     -11.58750074       6.97568418      -0.21432852       0.23312520       0.04765420       0.16340056      -0.16070863      -0.53769639
C        5.73067167     -13.39837597       8.11003559      -0.13565023      -0.10602291      -0.32122466      -0.29362248      -0.61528626      -0.29185714
H        4.90246886     -14.01591126       8.47521648       0.33635794      -0.00358772       0.23012537      -0.04840497       0.20151584       0.25756460
C        6.27532918     -14.14788030       6.89155498       0.09088755      -0.26741265      -0.37242915       2.10970637       1.03832595       0.83727312
H        7.08058135     -13.55050208       6.39786755      -0.20223221      -0.05645030       0.14656772      -0.38114439      -0.40947196       0.38883014
H        6.71239577     -15.07541448       7.27860170      -0.08446578      -0.35113751       0.19369855      -0.12831912       0.11955261      -0.28248387
H        5.56056767     -14.33360050       6.15594868       0.13481185       0.12502583       0.25981066      -1.43483051      -0.39342347      -1.06409113
C        6.78602212     -13.49067336       9.21339700      -0.28504566      -0.07311067      -0.88398156       0.64578430       0.34929192       0.63349666
O        7.05961985     -14.59127185       9.71600934       0.40516887      -0.12565034      -0.54638586      -0.25117396       1.04855719      -0.39733449
N        7.41621776     -12.31411969       9.55730384      -0.90603409      -0.63134094      -0.38604406      -0.28634336      -0.62317994       0.10969064
H        7.19756956     -11.42563890       9.12966952      -0.01716053       0.07136119      -0.22270474      -0.43478968       0.04478649      -0.41364151
C        8.39604753     -12.22718559      10.58973372       0.64482474      -0.62389308      -0.07033730       2.36530206      -2.36821402       0.61330407
H        8.87778647     -13.29231099      10.69233549       0.42325124       0.09469085       0.06986565      -0.91784588       1.71674604      -0.14930533
C        9.54785275     -11.24463257      10.23083268       0.40312363      -0.14972165      -0.78005344      -0.50574064      -0.24770166       0.20353407
H       10.21892069     -11.28754739      11.11864251      -0.09055200      -0.01180735      -0.04595849      -0.18425023       0.31182239      -0.80027136
H       10.06116301     -11.61127346       9.29601972      -0.29069723       0.14673212       0.19301196      -0.49554199       0.65676928       0.92920758
H        9.08239145     -10.22611924      10.13133580      -0.17984083       0.36275426      -0.17575871       0.76971703      -0.75362517      -0.15692347
C        7.93069149     -11.88946222      12.01591709       0.15374018       0.81111734       0.45055105      -2.02711618       1.65303710       0.46806321
O        8.62227585     -11.94934230      13.02280703       0.04538121       0.15632062      -0.95973287       0.58584506      -0.41299157      -0.52130510
N        6.64971414     -11.27719946      12.05418235      -0.39514067       0.67882093       0.04696082       1.59480995      -1.45043552      -0.14097438
H        6.10436539     -11.66946859      11.31665557      -0.15110134       0.02351958      -0.19620048      -0.96928374       0.23225170      -0.62343497
C        6.01222174     -11.06874824      13.33396780      -0.87797787      -0.18602201      -0.75984616       1.64248991       0.79917629       0.53980868
H        5.39098471     -11.88464176      13.67364143       0.36763188      -0.29702860       0.10842582      -0.08305543      -0.36934269       0.09626534
H        6.86710548     -10.87057327      14.02481358       0.09913184      -0.17814657       0.07605524      -0.73110007      -0.56385488      -0.13017586
H        5.46066372     -10.14575290      13.34960785       0.01279021       0.46487910      -0.24659304      -0.58180199       0.35632902      -0.30471388
