112
Properties=species:S:1:pos:R:3:momenta:R:3:forces:R:3 energy=-496.7633380421309 pbc="F F F"
H       -2.73628052      -0.06612342       1.72760276      -0.12032380       0.03616870       0.20481596       0.07728189       0.61031115       0.49179428
C       -2.62724702       0.98386422       2.06441519      -0.00689541      -0.27084264      -0.37796832       0.35576216       0.49814169      -1.02935386
H       -3.21486795       1.28174814       2.89125241       0.02990692      -0.16646924      -0.11509910      -0.86322541      -0.54098776       1.27185034
H       -3.10204965       1.63539712       1.28251849       0.30766452      -0.07963697       0.13316217       1.03167730      -0.51517479       0.13382293
C       -1.17477198       1.38421680       2.35091084      -0.34265562      -0.23456563      -0.24899029      -0.91493628       1.68043467       0.47889428
O       -0.27367620       1.29007979       1.56054115      -0.46125276      -0.65693110      -0.27916827       1.24598615      -0.96397026      -1.21903558
N       -0.96337218       2.13877172       3.50826968      -0.13106709       0.05949133      -0.20297798      -0.75647712      -0.13020138       1.27138690
H       -1.72180143       2.22988849       4.19831402      -0.06302838       0.22572868       0.18495138       0.45833600      -0.12896256      -0.65002811
C        0.32194330       2.64991228       3.97285708       0.53523609       0.18508630       0.21653682       0.51240251      -0.49268488       1.79916592
H        0.98246791       2.81295438       3.14767082      -0.27100552       0.15060858       0.05168092       0.32807718      -0.25800999      -0.76567340
C        0.23002004       4.02339583       4.70827127       0.36003336      -0.06755784      -0.25200208      -0.41217142      -0.60430805       0.06985747
H       -0.54029654       3.97865327       5.55309791       0.02208366       0.10871447      -0.25432419       1.02177333       0.24314466      -1.11274445
H        1.25713375       4.25533467       5.11991042       0.12571662      -0.05509492       0.11556569      -1.25175251      -0.07213984      -0.48260933
H       -0.07386757       4.70902556       3.89180044      -0.18677322      -0.15933926      -0.13363545       0.10760797       0.16974609       0.91019879
C        1.11688641       1.68145033       4.98733451      -0.31455918       0.49617432       0.08627681      -1.37714565       0.42746094      -0.85754267
O        2.25608620       1.90643871       5.36448875      -0.52444592      -0.26034383       0.71135021       0.66162298       0.41532309      -0.25093069
N        0.40071955       0.65002049       5.50929952       0.32587535      -0.03708463      -0.84737706      -0.28278870      -0.94111988      -0.57891234
H       -0.38977356       0.27540780       4.96869273      -0.01764010       0.11402782       0.03643491       0.34304899       0.61693033       0.26296412
C        1.08551016      -0.39496594       6.24822931      -0.56970839      -0.54655615       0.72559038      -0.07165996      -1.65864361       1.50555073
H        1.89211754       0.00259555       6.89500379       0.23159636       0.21972073      -0.49680318      -0.40757599       0.35943796      -0.63103964
C        0.12268548      -1.19157466       7.14093051       0.34854321      -0.58204750      -0.05320350       0.59777230      -1.23852779      -0.92082278
H       -0.35336572      -1.92891872       6.43172924       0.01846146       0.16961861      -0.05456693      -0.43589431       0.93190783       0.98371256
H        0.69882546      -1.87696812       7.79587374       0.02878241       0.09186623       0.13793069      -0.09557080       0.54504514      -0.20476860
H       -0.49684518      -0.55970148       7.75872879      -0.10947510       0.07958451      -0.08708976      -0.49939478       0.02368446      -0.10654271
C        1.74690253      -1.45756039       5.31222401      -0.02655081      -0.42576925       0.50208952       0.66566793       0.48617621       0.99431538
O        1.39864528      -2.62456364       5.17431670       1.01105509       0.11276560       0.13799783      -0.49970149       0.18683421      -0.24766068
N        2.88952662      -0.97333654       4.76351639      -0.56995945       0.54791995      -0.60877338      -1.29239158       0.59186248      -0.55464804
H        3.07528608      -0.00727267       5.02792856       0.18741540      -0.24996452       0.07117306       0.05075922       0.18900973      -0.64690855
C        3.25590093      -1.49401814       3.45445855      -0.35952860       0.21296220       1.43205903       1.19640620      -0.76240640       0.76559661
H        2.43605455      -1.75564838       2.77350702      -0.08849683      -0.26339971       0.38866457      -0.32231682      -0.57473040       0.89956319
C        3.97141412      -0.43698405       2.69224955       0.13122368      -0.00655928      -0.94465446       0.27919774       2.83856485       0.34136738
H        3.32181528       0.41555984       2.32072357       0.24494780      -0.01468691       0.03338931       0.07321337      -1.06446010       0.72775849
H        4.75243033       0.09469575       3.27020579       0.06192301       0.08353437      -0.22201522      -0.10344731      -0.52271665      -0.13653860
H        4.38529299      -0.79298853       1.80213239       0.03622885      -0.15376434      -0.09479207       0.92166766      -0.92475346      -1.29461145
C        4.15220161      -2.75541186       3.77534064      -0.69990682       0.76978630       0.07922267       0.87020704      -0.86967940      -1.51575608
O        4.42718198      -3.63129545       2.94173939       0.44126344       0.86124644       0.84354563      -0.47319359       0.68266955       0.17362452
N        4.71471657      -2.80329213       5.01373688      -1.01932136       0.45549776      -0.34385496      -1.59246759       3.09225130       0.53698724
H        4.45646802      -1.97183251       5.57245048       0.24348975       0.06341067       0.41493480       0.31455500      -0.85708612      -0.19369643
C        5.75050547      -3.65437548       5.45699877      -0.25094149      -0.46772529       0.30347547       0.73808227      -0.72272040      -1.96586168
H        6.43673344      -3.78944135       4.56946015      -0.12483434       0.05633634       0.28065856      -0.25425689       0.16714764       0.74380769
C        6.50721925      -3.13426756       6.65565768       0.49058834       0.58827701       0.10218740      -2.21943160      -0.48659975       1.49487167
H        7.01140040      -3.98608461       7.07338205       0.01548480       0.18443188      -0.26435783       0.48719107      -0.28129401       0.26058293
H        7.19738195      -2.34838249       6.46867090      -0.00961067       0.07041203      -0.03974803       0.42298901       0.72507453      -0.36933551
H        5.73453014      -2.81372399       7.44505472      -0.04808333      -0.04645392       0.22383240       1.12915748      -0.22974507      -0.95886808
C        5.26766526      -5.08717838       5.61835509      -0.00331375      -0.51495699      -1.14953553       0.68654448      -1.66092021       1.18397895
O        6.15051395      -5.95771483       5.83081998       0.66868099       0.33108981       1.41659537      -1.49653478       0.57669676      -0.46332774
N        3.92325919      -5.30889965       5.54345413       0.26778672       0.36877934      -0.16800277      -0.70345485       1.73027169      -0.55824050
H        3.35532223      -4.46110473       5.35439127       0.24716924       0.06772740       0.38009768       0.76646489      -0.58705995       0.16907008
C        3.12490356      -6.50537289       5.37490229       0.57436815      -1.03860666       0.21511662       0.45376948      -1.38819309       1.82039165
H        3.29202549      -7.17235774       6.28842832       0.19292827      -0.32798989       0.07943183      -0.04117913       0.65536738      -0.92612842
C        1.60388780      -6.24128194       5.36263155      -0.38196630      -0.08075284      -0.12286324       1.02005015       1.85656634      -0.30528238
H        1.32369450      -5.53126188       4.55207147       0.08195123       0.27676351      -0.06486592       0.17630230      -0.70103035       0.09601102
H        1.10673222      -7.19189259       5.26892905       0.05951261      -0.03532681       0.06035148      -0.33312503      -0.09585776       0.13930134
H        1.38455846      -5.65041230       6.26352906      -0.04181960      -0.17568406       0.08592296      -0.29677974      -0.64763173       0.06451802
C        3.53301613      -7.40668759       4.23830550       0.08895055      -0.03431846      -0.98714988       1.09285958       0.97998138      -0.21122028
O        2.99412115      -8.46630422       4.06178304      -0.58909284      -0.88829511       0.84751410      -1.85586432      -2.20163985       0.03941232
N        4.55657945      -7.05410731       3.44329498      -0.58163836      -1.48674074       0.65743291       0.90460401       1.56568696       0.77626457
H        5.16295344      -6.27946335       3.70141515       0.14426768      -0.11162181       0.21830193      -0.42981633      -0.06135632      -0.19318155
C        4.96965694      -7.82871469       2.33467340      -0.38792484       0.39148897      -0.46300834      -1.29706724      -1.13137070      -1.64666010
H        4.02480616      -8.40944688       2.03250379      -0.02808703      -0.05865207      -0.18552098       1.34589770       0.51741829       0.29259162
C        5.37037229      -6.87899584       1.18010231      -0.49915147      -0.24381913      -0.17076478       0.31154713      -0.45070894       0.86212182
H        6.35573574      -6.46842466       1.38644213       0.14313752       0.45413787      -0.09364843       0.10518239       0.22966164      -0.07240238
H        5.39006115      -7.34158985       0.21860643      -0.15601091       0.21633880      -0.03435392       0.18653308      -0.71497996      -0.50690394
H        4.64313366      -6.09238378       1.11760180       0.08532913       0.29352079       0.04373407      -0.31673701       0.54492725       0.18360690
C        6.04572906      -8.87812950       2.65505627       0.17069369      -0.05488828      -0.08904880       1.30449260      -1.07348672       0.26892276
O        6.66559225      -9.50988539       1.78448428       0.14962982       0.35713039      -0.31998032      -0.74063467       0.82409271       0.63640027
N        6.30493162      -9.08415269       4.00689094       0.46866814      -0.28564928      -0.64243592      -1.63498810       0.56533675      -0.40579022
H        5.75813401      -8.51109052       4.65876747       0.03999796      -0.17936330      -0.10617537       0.40444827      -0.21436141      -0.42359398
C        7.43106056      -9.76475813       4.59841099      -0.11350398      -1.06118213       0.41520051      -0.12761613      -0.63339276      -1.69977819
H        8.13527421      -9.95369985       3.78242905      -0.11683687       0.06330061       0.14645668       0.30854094       0.53454416      -0.28107724
C        7.97335774      -8.85451433       5.63367219       0.00031680      -0.43838521       0.81667962       1.64110165       0.32921834       2.24281867
H        8.83235250      -9.24657513       6.21835190      -0.07563439       0.14901290       0.39498271       0.05536792      -0.16694420      -1.00241185
H        8.26137480      -7.82867301       5.27265582      -0.28967462      -0.08174867      -0.16441525      -0.68239347      -1.09185182       0.22267915
H        7.29360128      -8.82683816       6.48731369       0.26210229      -0.07567850       0.03686955      -0.65118580       0.72713772      -0.25508004
C        7.25263459     -11.25052172       4.93897457      -0.00926947       0.19104476      -0.04861159       1.29439168      -1.51491275       1.64185802
O        8.22444581     -11.85765058       5.51121613       0.00015018       0.27522881      -0.91543851      -1.71728168       1.32820961      -1.06583458
N        6.17329348     -11.93907957       4.49896009      -0.33329005       1.03500820      -0.83089281      -0.83723108       0.36036096      -0.31045018
H        5.34658747     -11.38121134       4.19464622      -0.15852058      -0.12106224      -0.16908042       1.01485588      -0.70547932       0.05497736
C        6.01211238     -13.44236525       4.64445965      -0.56041005       0.14413141      -0.68666749       0.48956592       0.75091448      -0.74417452
H        6.35692978     -13.62592834       5.67833812      -0.16736817       0.17548197       0.15805360      -0.32019965      -0.32898029      -0.33922308
C        4.54409108     -13.83445095       4.36918343      -0.98660448       0.60436239       0.08178082       1.01892293       0.37800805       0.23192466
H        3.97041452     -13.23816352       5.08184814       0.07552740      -0.27234764      -0.05927137      -0.46362577      -0.45652664      -0.13434179
H        4.22074803     -13.65716495       3.33604587       0.14532001       0.15562087      -0.02566334       0.31028150       0.36259465       0.21201124
H        4.44707677     -14.91164218       4.48798288       0.09852398      -0.18331571       0.11921436      -0.17898315       0.03946461       0.45248355
C        6.98385750     -14.20736582       3.65490540       0.56121715      -0.12841118      -0.10965819       0.34163725       1.21293912       1.01496718
O        6.60619838     -15.02534818       2.83772885      -0.38089373      -0.31719779      -0.00350627      -1.41602422      -0.86651249      -0.73711447
N        8.29566877     -13.93692897       3.75133028      -0.63755800      -0.42313337      -0.65526831       0.92940992       0.35834920      -1.26760191
H        8.58423325     -13.12055135       4.28532452       0.09161769       0.26824698      -0.17852632      -0.17207077      -0.03511798       0.49861337
C        9.17249638     -14.25182521       2.57521255       0.40087545       0.23788704      -0.42106041       0.57980024      -1.07344913       0.52978799
H        8.70181424     -13.95529503       1.60523945      -0.01809643      -0.02247898       0.26277637       0.23540749      -0.29175980       0.88005634
C       10.57563535     -13.62675604       2.82410871       0.33508066      -0.10543784       0.07298929      -0.91746660      -0.10412105      -0.02002995
H       10.93371136     -12.96489225       2.05106515      -0.07567483      -0.07258622      -0.21923924       0.04752554      -0.13715169      -0.55009534
H       10.51280503     -13.01565200       3.70327459      -0.02891044      -0.13023378       0.08886018       0.20321665       0.26715915       0.71770520
H       11.23696578     -14.46732552       2.98910152      -0.04415021       0.05116920       0.34997679       0.63039836       0.32972522       0.02781825
C        9.53452801     -15.80354295       2.46913040      -0.01679870       0.33190115       0.16943255      -0.16847514       1.56867754      -3.48519222
O       10.00746746     -16.16549533       1.35392570       0.46704717       0.20895040      -0.18223253      -0.91192901      -0.00105868       2.58751400
N        9.31448880     -16.51748077       3.56253176       0.72658334       0.09315562       0.47786311      -0.13990523      -0.88357365       0.96212201
H        8.99099990     -16.04732394       4.38094584      -0.02442500      -0.01258763      -0.09759382      -0.23680468       0.76918860       0.28928345
C        9.29662750     -17.95182839       3.69331239       0.07565475       0.26194435       0.38976393      -0.81041942      -0.83596610       0.01745021
H        9.70963833     -18.29699771       2.77245629       0.02083164      -0.06040258       0.13075584      -0.10787206      -0.55249415      -1.03736543
C       10.18771121     -18.48589682       4.80147114       1.01469058       0.24025392      -0.75367693      -1.58699023       1.38176552       0.36116755
H       11.09697886     -17.95658703       4.76991726       0.00885932      -0.08974525      -0.23944964       1.43285267       0.33102397      -0.05719410
H        9.68735742     -18.21779860       5.72366847      -0.05913350       0.25715434       0.11062519       0.09011564      -0.12835722       0.63619998
H       10.28080582     -19.53656818       4.76635164       0.02013685       0.17264822       0.10768679       0.18645405      -1.05902245      -0.17450276
C        7.82623635     -18.56061352       3.88290602       0.68721682      -0.34744625       0.12748728       1.45059808      -0.58695329      -1.02332959
O        7.77326965     -19.77682357       4.20371990      -0.65044904       0.15297110       0.19531604      -0.70802374       2.30844163      -0.35600947
N        6.79562790     -17.73224140       3.51504429       0.47539747       0.15437155      -0.36903323       1.70675035      -0.94722210       0.98892116
H        6.93783164     -16.73689439       3.31846415       0.11509030      -0.06068733       0.09120382       0.19410720      -0.44284656      -0.17752363
C        5.46515012     -18.19902516       3.65444300      -0.59252388       0.68162630       0.23140408      -0.73730441      -0.56289582      -1.30015436
H        5.44582441     -19.03845604       4.34695100       0.12359310      -0.09567042       0.12830065      -0.29182632       0.19486709       0.17304653
H        4.83055487     -17.36457544       3.86349220       0.07213895      -0.21501747       0.14238084      -0.53133469       0.41288174       0.83003396
H        5.07633098     -18.53876907       2.67681305      -0.03376803      -0.02960527      -0.02004381       0.17650354      -0.29652755       0.20140090
