112
Properties=species:S:1:pos:R:3:momenta:R:3:forces:R:3 energy=-497.238318904365 pbc="F F F"
H       -1.27141574       1.65469014       7.86683219       0.05967890      -0.03732476      -0.01086431       0.68059059       0.66322735      -0.02177945
C       -0.77706018       2.32175111       7.11772047       0.69848001       1.13614059      -0.55865153      -0.23914591      -1.51767111      -0.45302347
H       -0.81472218       3.37171618       7.40810499       0.04363059       0.11425805       0.14154658      -0.28541452      -0.13036595      -0.00873413
H       -1.38120478       2.08064836       6.22932405      -0.24409784      -0.22666468      -0.02413898       0.36556848       0.58457708       0.01439969
C        0.66683231       1.90244856       6.86013690      -0.52206297       0.00174679      -0.11937955       1.74052019       0.37407608       1.33021323
O        1.11773131       1.22712712       5.93663852      -0.34740956      -0.02973183       0.26033815      -0.75574749       0.27768227       0.20567284
N        1.57966062       2.37811070       7.86637673       0.35610541      -1.23722052       0.40549333      -2.01019040      -0.72266491      -1.35131827
H        1.15583927       3.05141156       8.45701055       0.23426625      -0.01310011       0.07558545      -0.32528423       0.60524947       0.72662656
C        2.95082337       2.63087027       7.56736351       0.52601121      -0.31171225       0.53130752       0.80795169      -0.08717905      -1.34489017
H        3.07805983       2.82819069       6.46822475      -0.07476363       0.05044953      -0.30005735      -0.31645429      -0.47668244       0.58635242
C        3.48445158       3.86898998       8.22877193      -0.16349288       0.67488623       0.42765205      -1.35888869       0.75836434      -0.21784225
H        3.43908009       3.73693709       9.29963521      -0.06824724       0.15767171      -0.02938009       0.48974586       0.24999889       0.45856450
H        4.44674559       4.11254348       7.81123973       0.30192854      -0.00422505      -0.01373328       0.48131301      -0.08182740       0.35732920
H        2.79800867       4.69455165       7.95273818       0.12283331      -0.03278845       0.03177943       0.31270584      -0.17331703       0.24148285
C        3.89233955       1.46140274       7.79579370      -0.37710047      -0.02899871       0.47176689       0.12952518       0.36573290      -0.61378265
O        5.05580251       1.63305927       7.43666183      -0.55672837       0.39039283       0.14361648       0.15956365      -0.53147615       0.10962019
N        3.38188539       0.28042767       8.22747430       0.72959020       0.34434139       0.39400543      -0.25205847       0.30550703      -0.68620767
H        2.46093445       0.26571547       8.62781409      -0.30137143      -0.02972024      -0.10610552      -0.30008415       0.06646419      -0.09403840
C        4.10550792      -0.94287576       8.03916030       0.20474527      -1.05259746      -1.11230557       0.37922095      -0.03602184      -0.86205724
H        5.07515030      -0.57842700       7.59734476      -0.01027756       0.02344815      -0.01417925      -0.57343793      -0.57486393       0.42233300
C        4.27618332      -1.67543275       9.29735987       0.17584957       0.90604159       0.05517099       2.60106972      -0.67248322       1.15369584
H        3.36786568      -2.02561779       9.73220078      -0.14787169       0.34890187       0.15504704      -0.78365842      -0.51331468       0.08859278
H        4.94385718      -2.51259632       8.99552157      -0.02353155      -0.11944134      -0.07290487      -0.64445388       0.04945922       0.80020238
H        4.80528575      -1.10903213      10.09077942       0.19552952      -0.05129725      -0.06890200      -0.20648631      -0.03150006      -0.57876860
C        3.51011230      -1.99658002       7.01236103       0.04315643       0.32906752       0.60728666       0.24052978       1.18837401      -0.60715168
O        3.71779425      -3.20738361       7.07636891      -1.52501937       0.36418148       0.10608356      -0.05566393       0.08846816       0.29038155
N        2.88374306      -1.42331766       5.96200873       0.22981991      -0.06015806      -0.69417487      -0.43782372       2.34837810      -0.32789030
H        2.67992301      -0.36760510       5.99603527       0.02045282      -0.06656606       0.02196424       0.28818578      -2.09409269       0.05128684
C        2.15812186      -2.19407046       4.93803677       0.36810915      -0.22092656       0.85017195       0.27693827       0.70998911       0.91377803
H        1.37494414      -2.73348737       5.53184982       0.36743740      -0.56597085      -0.06251191       0.28052066       0.12519572      -1.18485268
C        1.66699349      -1.24025189       3.82037791       1.11694451       0.39023210      -0.06649441       0.77002777       1.47720271       0.59900404
H        0.91010443      -0.47332556       4.11567238       0.03477940      -0.45872617       0.21044109       0.72512766      -0.60549256       0.29796729
H        2.57237351      -0.66184664       3.37719830      -0.10248854       0.04753028      -0.08755154      -1.48687978      -1.10337317       0.58755342
H        1.18517799      -1.84981558       3.09979367      -0.19478226       0.07176068       0.02647736      -0.19206596      -0.52399957      -1.06968003
C        3.04317114      -3.20809727       4.22671874      -0.96076990       0.25713851       0.80818055      -0.02984854      -1.56928815      -0.74776654
O        2.52405682      -4.23188401       3.74793447       0.34291033       0.16957359      -0.54178514       0.26672200       0.72638651       0.28710596
N        4.37200543      -2.92892352       4.02925195       0.03921997       0.60258772      -0.26424444      -1.15010678       0.64724133       0.50871786
H        4.65028578      -2.00163019       4.28893651      -0.13131310       0.33712663      -0.30681847       0.30915982       0.26087629       0.21719798
C        5.22847794      -3.68344677       3.16171471      -0.43877994      -0.35896482      -0.24802752       1.07707516      -0.67965916       0.44140079
H        4.73618466      -3.84526910       2.23033244       0.00323006      -0.04306376       0.10352676      -0.33625307       0.14488471      -1.12986745
C        6.61743359      -2.98539465       3.00474877       1.13881413      -0.52375091       0.13598360       0.38594618      -2.61150923       0.68760662
H        7.26213303      -3.72611047       2.36721285      -0.19415852      -0.10450431      -0.26117534      -0.75329433       1.33339273       1.69413254
H        6.62270176      -2.07677983       2.47323296      -0.18067053       0.12883385       0.15412507      -0.53599664       1.19554648      -0.82176158
H        6.97766691      -2.73051843       4.05440018      -0.07586045       0.16492978       0.05198962       0.14747686      -0.76444665      -1.32680079
C        5.40117322      -5.18031502       3.62989760      -0.04069340       0.08876057       0.78019610      -0.47728225       0.66872775       1.94528713
O        5.81703165      -6.06096887       2.88647196      -0.15224508      -0.01326057      -0.62787749      -0.10489822       0.22793281      -0.12334070
N        4.93664584      -5.40517493       4.92470276      -0.48674263      -0.08706165      -0.45076599       1.28847697       1.16339799       1.20715743
H        5.00343295      -4.63915015       5.66864157       0.02470765      -0.32081068      -0.07047546      -0.51476985      -0.80461388      -1.95152178
C        4.99075710      -6.69574619       5.60016672       0.30251726       0.10211412       0.24495132      -0.61161835      -0.71553359      -1.10326413
H        6.02404425      -6.99791662       5.85034475      -0.13805523      -0.14152278      -0.24449878      -0.32696832      -0.11164533      -0.47809302
C        4.17374688      -6.66897812       6.89662447      -1.48517278      -1.10370942       0.74933332       2.17310074      -0.77251343       0.90708432
H        4.81778649      -6.40946194       7.74631722       0.01864670       0.13842727       0.10796875       0.40455025       0.04586757      -0.14889635
H        3.47802647      -5.88379476       6.95461110      -0.13430379      -0.11326427      -0.12805537      -1.69556500       0.45220552      -0.42594440
H        3.90076561      -7.69940231       7.14135874       0.04527678       0.14117137       0.24552879      -0.75779909       0.35147355      -0.15735946
C        4.32457792      -7.81494711       4.69692649      -0.58537549       0.43344677       0.36540838       1.07578672       0.77221369       1.93204015
O        4.66881566      -8.97602805       4.87478843       1.19516292      -0.63562543       0.42689521       0.33642138      -0.86124196      -0.42710536
N        3.30407761      -7.43400207       3.95705191       0.05163671       0.62255756      -0.14972019      -1.95966990       1.34708714      -1.75281891
H        2.89324655      -6.47543741       4.00068295       0.02648545      -0.26298602       0.17224512       1.10556313      -0.79737366       0.09110926
C        2.48643050      -8.34778392       3.08896366       0.30987899      -0.06115188      -0.30203432       1.61589916       0.98122958       0.26869493
H        2.17377738      -9.08302577       3.82304266       0.19169625      -0.17685412       0.12783539      -0.58897405      -0.65455095      -0.56316315
C        1.39682095      -7.49199616       2.44612542      -0.42334297       0.88859575      -1.68898476      -1.84657008      -1.41627674       0.89040884
H        1.72969236      -6.49472500       2.25788900      -0.02700374      -0.00671450      -0.24264219       0.37234742       0.67638151      -0.20244264
H        1.05085374      -7.96728207       1.50670935       0.02894029      -0.00733443      -0.03255653       0.13378055       0.27392602       0.59161883
H        0.52252235      -7.43980676       3.16696049       0.00267003      -0.41498279       0.13499595       0.81738352       0.10471762      -0.90989751
C        3.26953497      -9.04913749       1.93977699       1.16985306       0.03109416       0.49143530      -0.34608471      -0.60841506      -0.56258153
O        2.63869711      -9.87986645       1.25587935       0.29853048       0.40678623       0.82963876       1.15297870       0.77964813       0.85860777
N        4.57604108      -8.68020007       1.72708468      -0.44100466       0.79599233      -0.50475034      -0.66313595      -0.94682000      -0.41390028
H        4.88519835      -7.79044977       2.06743716       0.04542386      -0.08017999      -0.00209250       0.10083925       0.39996198       0.71705636
C        5.47177075      -9.24551183       0.69740302       0.37353307      -0.09064277       0.42062105       0.05841005       1.27754048       0.51198239
H        4.86583626      -9.69718786      -0.09695505      -0.08866169      -0.11839433       0.22239825       0.14478011      -0.02398430       0.13665101
C        6.28946575      -8.03044933       0.18270587       0.07021461      -0.50128976       0.07971955       0.46424459      -0.61278678      -0.12356531
H        6.83319822      -7.53958095       0.99430820       0.41661001      -0.04683036      -0.04973348      -0.30920571      -0.03875702       0.19374486
H        7.07026485      -8.30938578      -0.52985137       0.23507786      -0.19962725      -0.04023807      -0.32686021      -0.25131303      -0.11153957
H        5.61338335      -7.31965129      -0.26870374       0.22128752       0.10814632       0.11046002      -0.15254662       0.27494912      -0.17462946
C        6.44309203     -10.31016967       1.21294628       0.59396748       0.48416462       0.07611618      -0.21710689      -1.55089892      -0.22259400
O        7.16134451     -10.91099452       0.40714880       0.72680241      -0.01712452       0.09487318       0.53801857       0.20815630      -0.55831598
N        6.39255850     -10.68375155       2.49550355      -0.29547040      -0.00950202       0.57862827      -1.22214522       0.21043005       1.94236557
H        5.66012775     -10.25483561       3.08473875      -0.15884503       0.07420149       0.00208433       0.46292932      -0.02934321      -0.44726770
C        7.15737210     -11.76511806       3.24369238       0.54902874      -0.18034912      -0.81750984      -0.47044627       0.34368907      -2.78896687
H        8.17270524     -11.64890207       2.80507497       0.05167530      -0.05568677      -0.11682146      -0.30968565      -0.42496869       0.63441769
C        6.96697795     -11.45558107       4.69554749       0.27207916       0.17074333      -0.21854322      -0.25841001      -3.12546952       0.19851693
H        7.63800400     -12.04137813       5.32110565       0.14076384      -0.01864659      -0.08397804       0.64975968       0.21676282      -0.08855455
H        7.02531326     -10.43642410       4.90446618      -0.23384325       0.10941251       0.10805531      -0.04073450       1.58894355       0.41916563
H        6.02741178     -11.93736832       5.00146632      -0.38804755       0.05381323      -0.02780536      -0.30216275       0.75622565      -0.16075719
C        6.53529718     -13.19851655       2.76429756       0.04583810       0.10330544       0.08976256       0.91461179       1.76929657       0.45951300
O        5.70163519     -13.80128965       3.42542560       0.14039725       1.13735503      -0.06365245       0.30595723       0.09674364      -0.04682320
N        7.02046928     -13.65966732       1.57149729      -0.53437200       0.83358006       0.01736505      -0.29670776      -1.01031214      -0.83148162
H        7.41320285     -13.06450392       0.81212971      -0.05645033      -0.12148577       0.17627198      -0.24274761       0.12679895       1.48120475
C        6.26358919     -14.80523500       0.98301769      -0.75270935       0.92142293      -0.02301479       1.70934241       1.00927844      -0.98222428
H        5.25173643     -14.64924687       1.21996464       0.17562652      -0.05786575      -0.16837531      -1.46276312      -0.15352130       0.53714913
C        6.36462661     -14.67988616      -0.55167862       0.05006052      -0.56531536       0.12679203       0.51939150      -0.74546419      -0.91662117
H        5.89570707     -13.77930958      -0.93389184      -0.18722433       0.09852887       0.17016980      -0.33404296       0.24102909       0.28630761
H        7.37651179     -14.66827377      -1.03626944       0.06096894      -0.06398698      -0.00557880      -0.39699217      -0.14247922       1.01111181
H        5.85778532     -15.54019214      -1.00252309       0.03999815       0.02916194       0.11450120      -0.06536785       0.14600770       0.10304726
C        6.65380942     -16.21797606       1.40184572      -0.58051951      -0.27670892      -0.29422590      -0.78217337      -1.12175678      -1.01608901
O        5.92835495     -17.17445277       1.08282815       0.65219455      -0.77920883      -0.68183608      -0.21130697       0.49113653       0.19947795
N        7.85959762     -16.43661661       1.91633743       0.61654658       0.01460514       0.42600471       1.85675119       0.87480122       1.23609048
H        8.35613951     -15.61925500       2.26464930       0.02976893       0.11835331      -0.09105596       0.00806361      -0.19583539      -0.13913408
C        8.47150014     -17.74955030       2.10899587      -0.19570968      -1.00879842      -0.05175066       0.16852556      -1.13960713      -0.82220249
H        7.90873718     -18.37948252       1.38790236      -0.09335124       0.05788688      -0.20780032       0.38627781       0.14185423       0.24681926
C       10.01133782     -17.80864311       1.83359833      -0.30252795      -0.97642735      -0.15212442       0.33753733       0.59200105      -0.28280460
H       10.31063218     -17.39658491       0.82364182      -0.16374639      -0.13743898       0.10604781      -0.60081545      -0.01943707       1.09807581
H       10.52947118     -17.24779548       2.67105527      -0.32028760      -0.15730763      -0.00396316      -0.35096545      -0.70769701      -1.07368299
H       10.40376935     -18.86110980       1.79532973      -0.07041834       0.01171634       0.08811853      -0.64761386       0.87094349       0.47962558
C        8.23628138     -18.40842378       3.49135608      -0.39089798       1.03094243      -0.33502628      -1.52412625       0.50394016       0.36786568
O        9.12674004     -18.60683840       4.28919430      -0.22953412      -1.38314740      -0.87310425       1.07655357      -0.29577739       0.26553864
N        6.92919707     -18.72851323       3.82583572       0.19380131      -0.26342048      -0.35340589      -0.39354010       0.49251662      -2.84318226
H        6.22864384     -18.63842930       3.05541992       0.25256998       0.04766159       0.06544004       0.98112589       0.22275966       0.66705265
C        6.65614843     -19.82967050       4.67474399      -0.63103025      -0.18155985       0.19362521       1.38378431      -1.10718042       1.15113741
H        5.69311801     -19.69347680       5.10442989      -0.19399793      -0.09744409       0.10027660      -0.75068565      -0.11786464       0.60527837
H        6.73578744     -20.83146562       4.21824008      -0.45064968       0.32255891      -0.00338893      -0.34728913       0.30869158      -0.48676633
H        7.45351538     -19.89949381       5.43456529      -0.10072799      -0.07662532      -0.14253136      -0.51966268       0.44912624       0.07332238
