112
Properties=species:S:1:pos:R:3:momenta:R:3:forces:R:3 energy=-497.86598802822033 pbc="F F F"
H        9.13578125      -0.01389519      -2.11450228      -0.25767811      -0.12008882       0.04215461      -0.54659786      -0.05735567       0.44242579
C        8.12268104      -0.39811202      -2.31769131       0.24145832      -0.68175787       0.87923535      -1.82024752       1.24588667      -0.29561887
H        8.24102067      -1.24769032      -2.96312664      -0.07224814      -0.13023300       0.16742468       0.05537977      -0.21738881      -0.66515868
H        7.47733449       0.42367863      -2.82004545       0.15036377       0.23382483      -0.20393407       1.29980035      -1.22580103       0.50262921
C        7.31908104      -0.95274162      -1.14336844       0.43084853      -0.45371783       0.04928980       1.08639411      -0.67904190       0.92074375
O        7.51275780      -2.12287952      -0.73310410       0.34869439      -0.16714160       0.12297794      -0.62799570       1.18336301      -0.48408526
N        6.42806503      -0.12442616      -0.50191545      -0.21697309       0.10586739      -0.34951105       0.09157287      -2.12203704       0.83672228
H        6.40044984       0.83494734      -0.74045893       0.15492278      -0.12160386       0.09419551      -0.02438159       0.95200701      -0.13565866
C        5.91893848      -0.56978758       0.86009797      -0.55964177       0.99252986      -0.26853021       1.19494147       1.75643332      -0.95357705
H        6.80485214      -1.00702723       1.38798250      -0.17803137       0.06174157       0.06740498      -0.93401109       0.29066079      -0.17915272
C        5.35500408       0.70587745       1.53219249      -0.47841068      -0.15799700       0.89460130      -0.59131203      -0.59279972      -1.49425848
H        4.64031123       1.23394568       0.87717014      -0.19319158       0.19831462       0.07281583       0.19652606      -0.42013612      -0.10841480
H        4.81083053       0.52496719       2.42439048       0.07296353       0.03108216       0.11172544      -0.09944903      -0.37484538       1.02538375
H        6.16268356       1.35859745       1.65909170       0.07303645      -0.27002764       0.09207482       1.19258809       1.11959449       0.67501958
C        4.82286548      -1.54903299       0.78307673      -0.12570405       0.16931027       0.44622432      -1.04244314      -0.30444015      -0.94509894
O        4.58011413      -2.31285966       1.69562215      -0.93591192      -0.07915659       0.36856487       0.26835673      -0.91663535       1.75440810
N        3.96434962      -1.50893928      -0.26979995      -1.88104243       0.68103773      -0.69961840       0.73039462       0.07102256       0.06263110
H        4.22650616      -0.96879761      -1.07854978      -0.06730390      -0.00771949      -0.02363842      -0.16248491       0.05550669      -0.16017365
C        2.84410721      -2.42442588      -0.29337163      -0.21079797      -0.70216733      -0.06141580      -0.89603404       0.41937015       0.28001239
H        2.40237121      -2.45687577       0.72772432      -0.02301107      -0.13707402       0.00711064      -0.03132419       0.44902054      -0.62170735
C        1.90301397      -1.97118390      -1.42017468      -0.22960288       0.10339110       0.09561470      -1.06063500      -0.05882292       0.83274504
H        1.70452889      -0.90893210      -1.23028993      -0.08354364       0.13294059       0.01070352       0.21645757       0.00706438      -0.54019246
H        2.49299818      -2.17083936      -2.32533492       0.05170433       0.04978741      -0.16887790      -0.76373131       0.34472148      -0.24091770
H        0.86234384      -2.44354113      -1.41810292       0.11833914       0.15742438      -0.10127529       1.79717825       0.11357821      -0.08149491
C        3.16298797      -3.86649125      -0.51311613      -0.22555659       0.75852970       0.43151330      -0.71788017      -1.78700660       0.11668364
O        2.23452419      -4.67577172      -0.49621513      -0.02862698      -0.57129220      -0.01543294       0.01592778      -0.05807364      -0.03157834
N        4.44284052      -4.20849460      -0.67418916       0.35433595      -0.66873128       0.44774384       1.43217019       0.55428177      -0.74556093
H        5.07056790      -3.41811848      -0.68182294       0.13858934      -0.08427559       0.22449864       0.27898976      -0.04174398      -0.08306104
C        5.05491358      -5.51182705      -0.91212783       0.70146430      -0.37029770       0.06297246      -0.99943680      -0.63145754       1.62309298
H        4.21790297      -6.19437434      -1.11273042      -0.06244336       0.10115319      -0.14208487       0.26744376      -0.00439052      -0.11482661
C        6.10745637      -5.48016632      -1.97179912       0.34718452      -0.45281915      -0.92306567       0.66243633       1.92401037      -0.77640884
H        6.86593520      -4.62800418      -1.72909359       0.03728234      -0.18151829       0.01824789      -1.14041957      -1.45824770      -0.58151220
H        6.62956947      -6.42567243      -2.00730942       0.30131325      -0.13884971      -0.00801679       0.22063264      -0.21605553      -0.06416977
H        5.62791938      -5.28060218      -2.96266182       0.00220830       0.07482072       0.23606096       0.55673409      -0.07094931       0.65405386
C        5.68733200      -6.00559167       0.43587371      -0.41390139      -0.12149939      -0.52434922       0.49988158       2.02288052       0.34092389
O        5.51485033      -7.05117247       1.01516557       0.29838241       0.82929628      -1.38703971      -0.99246526      -2.10698219       0.19135077
N        6.44979058      -5.06444425       1.05156357       0.83728328      -0.48393666       0.28232330       0.81286254       3.53100400      -2.14452160
H        6.70075558      -4.15259898       0.51488564      -0.05228152      -0.04348764      -0.21481614      -0.69216334      -2.11155578       1.23902845
C        7.06978646      -5.17153896       2.33600652      -0.79577685       0.20618341       0.34113217       0.52429058      -1.37735124       0.60691670
H        7.75669391      -6.04477005       2.35235928       0.35390175      -0.00278145       0.12318889      -0.35274685       0.22261122      -0.08849987
C        7.88398412      -3.95859016       2.74332432      -1.30233202       0.71699448       0.50651163      -2.34848755       0.49374647       2.01750617
H        8.11870667      -4.17315159       3.79338959      -0.10586235      -0.05333612      -0.18069771       0.26647815       0.28850860      -0.09301104
H        8.76818878      -3.70995008       2.26023417      -0.01466702       0.16884739       0.30111458       1.59053273      -0.10152126      -1.39084788
H        7.25440967      -3.04300760       2.76419356      -0.17496108       0.03844644       0.07374054       0.15234506      -0.45345060      -0.07957008
C        6.07976104      -5.51848486       3.51141530       0.72773997       1.13384905      -0.10300828       0.12527665       0.87868207      -1.37896080
O        6.48590409      -6.26927060       4.40544667      -0.82697105       0.28678543       0.33720129      -1.18564775       0.43016419      -0.25064316
N        4.84405771      -4.90345033       3.40807326       0.12024746      -0.23423052       0.33774921      -0.19052307      -1.95815469       1.94458474
H        4.64621541      -4.16513731       2.75880579       0.11365131      -0.15516798      -0.32951410       0.23085320       0.25010336      -0.56098098
C        3.83764196      -5.13129506       4.50057436       1.59795380       0.17708202       0.44638435       1.15090387       0.95500553       0.96131819
H        4.40711953      -4.94451821       5.45587932      -0.03987125      -0.08039143       0.01979934      -0.65979812      -0.20952908      -0.66685382
C        2.64592748      -4.17462090       4.40436210      -0.26062578      -0.96049684      -0.70910097       0.71074830       0.90613351      -0.48954130
H        2.01046170      -4.38693510       5.27023995      -0.04002372      -0.10489791       0.08260093      -0.01494407       0.26745787      -0.20169751
H        3.02467954      -3.08926663       4.42662092       0.28651210       0.06517593      -0.00778624      -0.77536000      -1.52453044      -0.12182527
H        2.09265421      -4.40918449       3.46533193       0.18273618       0.01049369      -0.12065008       0.22893367       0.46055437       0.59416458
C        3.25691931      -6.53124076       4.65820980      -0.16599261      -1.00040049      -0.47124834       1.19700962      -0.42863523      -1.03821325
O        2.82167183      -6.94317962       5.73062783       1.18859526       0.84719429      -0.22714833      -0.23455061       0.17539678      -0.00062993
N        3.28493909      -7.28461949       3.51480687      -1.01398505       0.18515563      -0.07958977       1.16966320      -0.16248017      -0.70249227
H        4.03139446      -7.06710837       2.76916675      -0.11761668       0.21659871      -0.27509717      -1.69445373      -0.16016896       1.24394036
C        2.83374705      -8.66477938       3.58537307       0.62961978      -0.43577258       0.96757170       0.60754453      -1.02519754      -2.76306279
H        1.98247945      -8.79606532       4.18527244       0.15619502       0.13437484       0.20324758      -1.35253110       0.47988843       0.83739077
C        2.48407407      -9.18989779       2.14669408       0.04908135       0.08200143      -1.07449914      -2.09436029       2.27442524      -0.08842748
H        3.34459612      -9.21599844       1.47901037       0.23887717      -0.01975839       0.03299231      -0.04517085      -0.09452045       0.06380411
H        1.87518956     -10.09551973       2.12686094      -0.04748588      -0.02223037       0.23256745       0.65009121      -0.29090548       0.36851237
H        1.71322888      -8.41493376       1.76165913       0.00466837      -0.29745429      -0.19080524       1.41590459      -0.95498030       0.18224917
C        3.77772056      -9.65094003       4.18922329      -0.00710887       0.26445042       0.07152403       0.14869348      -0.01008912       2.47773291
O        3.36896358     -10.74153877       4.64063526      -0.66388181       0.55245025       0.16802927       0.14774586       0.12141292      -0.89403257
N        4.98042829      -9.16200618       4.52161559      -0.15698657       0.00808769       0.35854827       1.65909288       0.69359870      -0.72179249
H        5.20038677      -8.16113767       4.30424063       0.08497027      -0.21927757      -0.10246100       0.01695921      -1.34804396       0.20703807
C        6.00490095      -9.96891439       5.19107137       0.68769988      -0.48747349       0.94364100      -3.01241902      -1.59014739       2.35873870
H        5.86279275     -11.04042533       4.93780710       0.28155096      -0.16233907      -0.12074458      -0.01353104       0.55052129      -0.49669729
C        7.36617722      -9.53325960       5.04267074      -0.00959172       0.16971212      -0.41007511       2.51196605      -0.42461320       1.61598452
H        7.72663296      -9.92323369       4.11579772       0.00198233      -0.04370660      -0.03037137       0.73694272       0.54891748      -0.82626643
H        7.46112039      -8.47508874       5.24876403      -0.09928234      -0.15114125      -0.14978313       0.22452227       0.36231626      -0.62810155
H        7.98765501     -10.02857397       5.87254206      -0.15525330      -0.16960114       0.10855828      -0.84375737       0.44924834      -1.18009534
C        5.66638666     -10.10091590       6.74346794      -0.10328121      -0.97687761      -0.50602109      -0.21701238       0.59409352      -0.79856763
O        6.22465414     -10.87428622       7.52129167      -0.25991946       0.12641298      -0.66360576       0.33362767      -0.29122294      -0.55662859
N        4.69058636      -9.30011609       7.17443113      -0.20768883       0.40194093      -0.22062302      -2.81835926       0.83577030       1.26987582
H        4.05180361      -8.68378399       6.64294182       0.18696811      -0.21779236      -0.27547423       1.20377272      -0.59695519      -0.43164037
C        4.07787880      -9.52160343       8.50067057       0.01703799      -0.47142745       0.59888900       0.02429558       1.85171387       0.81999294
H        4.86932959      -9.47281178       9.23577915       0.17778889      -0.28010596       0.25270858       0.34197279      -0.24538976       0.26634852
C        3.08676282      -8.37683275       8.89402507       0.62530684       0.03806820      -0.22225763       1.40447939       0.45107911      -1.38844938
H        3.56248198      -7.38030839       8.87397020      -0.03148750      -0.05223360       0.34162386       0.21842325      -0.46790628       0.25609057
H        2.29767661      -8.25604246       8.16105241      -0.02630104       0.02780870      -0.00550409      -0.56115509      -0.41210847       0.04970024
H        2.76662223      -8.61668080       9.87784180       0.02982858       0.05880257      -0.28872576      -0.69669075      -0.00432247       0.74573102
C        3.36228689     -10.81897118       8.75409509       0.17203515       0.52635382       0.00497709       0.53714184      -1.47060608      -0.61881304
O        3.22838117     -11.32474403       9.89499727       0.58366781      -0.05343484      -0.16337593       0.20073753       0.84015716      -1.77473576
N        3.03228146     -11.47809794       7.58815803      -0.56587134       1.29558056       0.66394475       0.07585268       0.02147302      -0.59833413
H        2.93640911     -11.06816913       6.61021812      -0.20128782       0.03722806       0.00307696       0.71961333      -0.22270496       1.72618862
C        2.60613704     -12.84514677       7.69595990      -0.85868054      -0.48744242      -0.27914314      -1.05310100      -1.26520021      -1.34186666
H        1.89914548     -12.87627535       8.48684907       0.08923262       0.06296280      -0.02278074      -0.77857263      -0.34205133       0.83521722
C        1.92497269     -13.28808722       6.36149700       0.18323398       0.40110065      -1.25888578      -1.04545209       0.63998908       1.16886008
H        1.09734101     -12.59348729       6.15333218      -0.07146159      -0.16207964      -0.24994259       0.22644744      -0.11701663      -0.10820355
H        2.62538253     -13.25022829       5.57785443      -0.09493529       0.34800199       0.30926036       0.96560932       0.28976441      -1.15102871
H        1.51127385     -14.29441784       6.35099351       0.17837897       0.08612847      -0.20594145       0.10807789      -0.05908610       0.56816577
C        3.61245078     -13.96305560       8.02368742      -0.01391302      -1.13161326      -0.04158578      -0.83576306      -0.74147964       0.35044671
O        3.18898641     -15.03044808       8.47967839      -0.10875153       0.97446467       0.07668391       0.34106809       0.51798053      -0.04741068
N        4.87100218     -13.70448196       7.66861209       0.01220628       0.18938437       0.16080742       1.32519334      -0.01401179       0.67360391
H        4.96150123     -12.74894910       7.37176243      -0.14042788       0.32073808       0.27995892       0.79391294       0.44628963      -0.05774377
C        6.09102509     -14.45732742       8.11013386      -0.50897262       0.23499742      -0.90468532      -0.72504324      -0.31212479      -2.42345252
H        5.85178834     -15.54437790       7.92690033      -0.00368216      -0.30711380      -0.04392375       0.23316527       0.93933975       0.18667007
C        7.31759522     -14.04265492       7.18577816      -0.46394850       0.80606746       0.75474298      -1.95992170       0.29227803       1.07067117
H        8.09443494     -14.66910955       7.58591417       0.20272640      -0.01687220      -0.03317530       0.78922437       0.08439088      -0.26565324
H        7.05108636     -14.25405947       6.14280248       0.07977826       0.21131700       0.17547154       0.26004581      -0.06596845       0.25312301
H        7.46677389     -12.95018793       7.32517488      -0.04077213      -0.04704396      -0.01053576       0.27450652      -0.73382630      -0.10660909
C        6.46075578     -14.37541707       9.55945757       0.13109956       0.23590866      -0.17699172      -0.34695894      -0.27054552       1.15436374
O        7.40894574     -15.05750658       9.98478717      -0.10819642      -0.73160433       0.66174596      -0.34642083       0.61311816      -0.46935140
N        5.66315275     -13.63710112      10.37718521       1.00248703       0.55670980       0.49380279       1.32765676      -0.88675775       1.52355472
H        4.87104427     -13.12588786      10.06534842      -0.03105596      -0.08447705      -0.16105116      -0.52314414       0.44467831      -0.41465021
C        6.06965365     -13.49967787      11.80079648       0.94599228      -0.61735567      -0.69104538      -0.64924901       1.90309878       0.01483494
H        5.23762396     -13.35204897      12.54566949       0.16460667      -0.26755406       0.21508832       0.27825617      -0.74405642      -1.12804361
H        6.74206481     -14.29735479      12.09062927      -0.10921782      -0.42353736       0.13937881      -0.03740237      -0.09128581      -0.13228407
H        6.57556942     -12.50875409      11.88199750       0.09529779       0.18950346       0.08571963       0.22929333      -0.68960022       0.01168336
