112
Properties=species:S:1:pos:R:3:momenta:R:3:forces:R:3 energy=-496.370879985076 pbc="F F F"
H       -8.73310793     -13.26093015      -1.06018372       0.12349585       0.08379326      -0.06134704      -0.56168450       0.17961069      -0.45792857
C       -8.78929719     -12.16593841      -1.15922501      -0.46230492      -0.01297870       0.54672945       2.73484407      -1.04246145       2.43434837
H       -8.88862073     -11.87591399      -0.09693098      -0.19854851      -0.15579083      -0.11248616       0.45905039       0.11734119      -0.26412294
H       -9.64482812     -11.77242736      -1.58705250       0.01961825      -0.05563369       0.04075466      -1.46261530       0.46689124      -1.61442329
C       -7.39116221     -11.77856432      -1.68043239      -1.07329783       0.79560776       0.14856974      -1.62193928       0.61164917      -0.26381494
O       -6.33834177     -12.01951334      -1.11463769      -0.81538923      -1.29064674      -1.11221356       0.22961953      -0.46811173       0.73705758
N       -7.39500340     -11.07772350      -2.85753890       0.95438686      -0.42604618       0.34809213      -2.17673253      -0.69180685      -0.05429686
H       -8.31019408     -11.04902206      -3.33362138       0.11379647      -0.31050008       0.19127491       0.91260611       0.17823434       0.19225773
C       -6.20975407     -11.02053466      -3.61484371      -0.22319727       0.46761540       0.59940052       3.40027632      -1.01575075      -1.40327831
H       -5.59679916     -11.94240613      -3.32103376       0.30660499      -0.04341356       0.10755342      -0.50468047       1.18544594      -0.21474773
C       -6.39815734     -11.04436488      -5.14899854      -0.02817838       0.57477267       0.20197859      -1.48404634      -0.78697395       0.67395956
H       -7.25953346     -10.36323166      -5.28014546      -0.00025635      -0.15057416      -0.27438639       0.35695862      -0.20986391      -0.74996143
H       -5.51743308     -10.67729486      -5.66303472      -0.19696838      -0.19796650      -0.07271251       0.03241724       0.14853322       0.11285428
H       -6.65720071     -12.08004140      -5.53547547       0.41329806       0.16870080       0.01665172       0.17327133       1.21866008       0.52616942
C       -5.29521989      -9.78983661      -3.26229162      -0.59576875      -0.54381407      -0.18295270      -1.32269805      -0.00804971       0.86094840
O       -4.49221015      -9.26907602      -4.00585428       0.06081992      -0.34333839       0.14600733       0.61227974      -0.12304438      -0.74207251
N       -5.57714992      -9.30684020      -2.02555315      -0.96465708      -0.21112776      -0.43603459      -0.34599788       0.04181517       1.01507113
H       -6.30731465      -9.81262410      -1.50324856       0.30071930       0.25424219      -0.01580133       0.68797257       0.81504845      -0.39433699
C       -4.99588063      -8.07962977      -1.46952705      -0.21666734       0.52155820      -0.47552836      -1.86606610      -0.56307463       1.71109314
H       -4.28661617      -7.74849124      -2.19959318       0.05069217       0.10104827      -0.09088038       0.44261765       0.46949580      -0.33363092
C       -6.10068437      -6.98123490      -1.20391986       1.09000574      -0.29689492       0.17332262       2.18349657      -0.48124863       0.43313352
H       -6.91545092      -7.17048157      -0.53391488       0.18970667       0.12100737       0.21195520      -0.55607683      -1.00511492       0.04670809
H       -5.60393654      -6.16225505      -0.71415730       0.01889324       0.17040143       0.20404536       0.49325558       0.53126317      -0.02615779
H       -6.37644562      -6.68364365      -2.16075370       0.01722081      -0.12335269       0.38443856      -1.14528759       0.72847291      -1.54829095
C       -4.26608355      -8.28267458      -0.12811163       0.10925768      -0.20788572      -0.74645213       2.20907721       4.33578760      -1.05335379
O       -3.57478904      -7.25497318       0.30629254       1.42904278      -0.30308192      -0.86116562      -2.16685682      -2.76051159      -0.85904229
N       -4.24946312      -9.46488013       0.39846626      -0.37116756       0.48938897      -0.34287948      -0.71790120      -1.18993813       1.06902578
H       -4.81418775     -10.15327713      -0.09298135       0.08317169      -0.04046537       0.35334343       0.30707382      -0.28252091       0.23181047
C       -3.70149240      -9.80154259       1.70995804      -1.22618839       0.04619848       0.51387697       0.93008589      -1.52061348       0.62230914
H       -3.90825600      -9.05088691       2.49414560       0.09405607      -0.12990868       0.02192867       0.05369797       0.29397180      -0.83891532
C       -4.33490535     -11.10838129       2.23261797      -0.58808781      -0.13088993      -0.39432710       0.65199006       1.04296778       0.97983289
H       -3.94384223     -11.99632295       1.77567119      -0.20170768       0.11722333      -0.04893051      -0.08593348      -0.39754949      -0.47852001
H       -4.13024075     -11.18422505       3.30609372       0.01992819       0.05686449      -0.19860888       0.49134380      -0.01625578      -0.14639180
H       -5.40233079     -11.01721603       2.25169843      -0.09031640       0.02852460      -0.24131054      -0.78763721      -0.19659827      -0.66188187
C       -2.11082277      -9.94189258       1.61895554       0.06166363      -1.16147948      -0.14859651      -0.03370696       0.71678930       0.22461849
O       -1.45504296     -10.83779308       2.15454378       0.15025593       0.29195636       0.48849611      -0.64996186       0.08647280      -0.11213033
N       -1.57153110      -8.89201885       0.96048235      -0.88888607       0.05532236      -0.17525638      -2.20495576       1.43033098      -0.83209900
H       -2.26281802      -8.08754996       0.64725026       0.02183396      -0.20603621      -0.07568375       1.23951017      -1.35463803       0.91250068
C       -0.18567872      -8.59254528       0.94007228       0.12721290       0.16237938      -0.51239981       0.85093815      -3.38903210       1.64675825
H        0.32306582      -9.61720349       0.99016091       0.24723467      -0.19809586       0.02337188      -0.38616453       1.11260947      -0.28640089
C        0.21894332      -7.81489400      -0.25082750      -0.30383262       0.50273933       0.00412906       1.46539371      -1.17356933      -0.24156884
H        1.32824742      -7.76598960      -0.28542823       0.23742123       0.04135940      -0.10717872      -0.64808936      -0.09537822      -0.36298684
H       -0.24302751      -8.22855998      -1.14774006       0.13640235       0.04400270       0.15031317       0.30558334       0.07471984      -0.07215448
H       -0.12797030      -6.86937686      -0.04445865       0.00658966       0.13829409      -0.08613159      -0.84305937       2.61744915      -0.20844885
C        0.20670621      -7.92823088       2.26839664       0.16630834      -0.70597711      -0.53911545      -0.45002187       1.20758434       0.05416598
O       -0.49013891      -7.08640076       2.84987373       0.40905175      -0.40577616       1.08279357      -0.14906265      -0.34113843      -0.30638805
N        1.41038978      -8.26423643       2.72895818      -0.86477100      -0.00072100      -0.13506813       1.25880782      -0.11563508      -0.91006464
H        2.03591905      -8.78474437       2.12090259      -0.01676267      -0.01451586      -0.02207002       0.06251840       0.01354261       0.19452801
C        2.06739730      -7.52144008       3.79457726      -0.72464261      -0.63045696      -1.16477458      -0.94330792      -1.28750963      -0.14887113
H        1.70573889      -6.49802154       3.75933266       0.12405395       0.02952338      -0.24665894       0.07469660       0.36687303      -0.16318685
C        1.55407574      -8.16457218       5.07846052      -0.08108389       0.85260868      -0.31603299      -0.46656906       1.72949928       1.06464439
H        2.19669245      -8.95825810       5.39381061       0.31727470      -0.06567406       0.15747151       0.28541116      -0.55753903       0.39203670
H        1.46352462      -7.36108314       5.84949552      -0.27066920      -0.07506745      -0.13264906       0.36555405      -0.80797592      -0.10441936
H        0.52721149      -8.51186375       4.92610860       0.04498836      -0.06376775      -0.17487044       0.30609056      -0.03202800      -0.09306179
C        3.56540985      -7.61849647       3.54770404      -0.14545235       0.55729834      -0.91069793       1.33436581       0.03782205      -2.19361927
O        3.98235486      -8.23299474       2.52717786       0.41072861      -0.71609508       0.58937770      -0.12177345       0.65437560       2.07658492
N        4.35335327      -6.87505096       4.39067551      -0.13757890       1.25329708       1.06933956      -0.47006161       0.01767501      -0.33191146
H        3.76806772      -6.18593046       4.84992314      -0.11189058      -0.08015826       0.22253918       0.62440095       0.04954661       0.58956692
C        5.80710255      -6.61228230       4.23760939       0.67761344      -0.63633451      -0.09571693      -1.08090815      -0.20749195      -0.09457852
H        6.20115155      -7.45952835       3.72054644      -0.06267118      -0.23992099      -0.03447468       0.09731037      -1.02318065      -0.11647738
C        6.12162970      -5.43006794       3.27229407      -0.19492125      -0.13537465       0.63320797       1.10378723      -2.68610499      -0.40836861
H        6.24136460      -4.57661380       3.85476833       0.28720135      -0.30250300      -0.03712807       0.06611865       1.90182139       0.44277692
H        7.05903201      -5.68833370       2.67635154       0.52827489       0.52903118       0.06359520      -1.08631138       0.58937835       0.87855089
H        5.29179039      -5.46380025       2.59999373       0.03454798       0.24662535       0.05815524      -0.43561185       0.65531370      -0.59594588
C        6.47205404      -6.50424211       5.61000218       0.15166404       0.56049101       1.47080731       0.22742731       0.41582422       0.57803643
O        5.91324106      -6.28982763       6.68882168      -0.55317762      -0.99414457      -0.60638033      -0.65015450       0.02547683      -0.60826665
N        7.81668722      -6.54320242       5.55616945      -0.02928612      -0.16987014       1.34907473       1.12488232      -0.55052041      -0.52445871
H        8.33637019      -6.92965975       4.77964458       0.22989276      -0.12537088      -0.24666741      -0.23679605       0.03469500      -0.41447308
C        8.66589134      -6.44128120       6.73140569      -0.29715382       0.55073024       1.45344586      -0.83474470      -0.27068015       0.64523258
H        8.25369677      -5.58006899       7.25986131      -0.00528582       0.16406548       0.23099269       0.33141313       0.01389275       0.47453276
C        8.50637196      -7.73598012       7.61797488       1.02446761       0.77549665      -0.85812616       0.24573603      -0.77541518      -1.68868850
H        8.90645361      -8.67270548       7.07958732       0.00220465       0.06708413      -0.23040784      -0.43313867       1.49804690       0.65515188
H        8.93992275      -7.68951606       8.59909506       0.07272437       0.09346893      -0.11545579       0.47791064       0.29759668       0.39470116
H        7.43552201      -7.86697096       7.74261242      -0.21891210      -0.07202004      -0.03405018      -0.11875575      -0.05362826       0.05100415
C       10.09341877      -6.23261066       6.24511390       0.69122774      -0.41284780       0.21820756      -0.32303544       1.48155931       2.82650094
O       10.49698015      -6.77540718       5.26635393      -0.12101966      -0.20062771      -0.14848350       0.81746124      -1.84987117      -3.15165402
N       10.93484137      -5.49322554       7.02855091       0.14183066      -0.87383381      -0.04015521      -1.89520298       0.45428029      -0.03859366
H       10.55445409      -5.04901356       7.86669243       0.20927320       0.02043429       0.18884700       0.57290931      -0.11144295      -0.19676654
C       12.34504770      -5.62104583       6.89064638       0.32989783       0.57213556      -0.60751308       1.31582530      -0.79572287       0.41622043
H       12.48778771      -6.65753697       6.58258028       0.02094381      -0.04371493       0.04614577       0.31763875      -0.21641221      -0.09385041
C       13.08657680      -4.75436175       5.82617386      -0.11026972      -0.74142941      -0.61026316       0.39887894      -0.67173008       1.29334261
H       12.71534309      -5.07707495       4.87243741       0.02401303       0.13382919      -0.04872904       0.13304789      -0.04287111      -0.60719330
H       12.87676504      -3.71994437       5.98017054       0.13292118      -0.19208516       0.20942910      -0.26948418       0.86156751       0.06967933
H       14.19957322      -4.87107247       5.93516599      -0.13452425       0.01969725      -0.23926293      -1.03637514      -0.16078495      -0.30893790
C       12.90041302      -5.45784757       8.31977618      -0.26100502       0.23991901       0.90472653       0.35413214       1.51533027       0.61013842
O       12.24516597      -4.81901796       9.15054169      -1.10266686       0.30599522       0.26929678      -0.38904629      -0.32542881       0.20169845
N       14.15013787      -5.87100130       8.61308971       0.02293734      -0.37408860       0.00798336       0.04050385      -0.26031521       0.60044874
H       14.74910651      -6.12692258       7.87143959       0.10330174      -0.07642124      -0.10330718       0.77731410      -0.69187781      -0.79601150
C       14.85487558      -5.60053679       9.90456862      -0.09004397       0.21386220      -0.18120826      -2.50286427       1.07459427      -0.60758972
H       14.45992948      -4.59572703      10.16856384       0.10896947       0.16100319       0.11222541       0.59165760      -0.33343523       0.27001717
C       14.47955607      -6.64185149      10.96795256       0.38836820      -0.64604072       0.36131803      -2.07508891       0.12797318      -0.51349582
H       13.34924393      -6.85489792      10.95857403      -0.11566185       0.15526929       0.12096353       1.60762760       0.60289040       0.01206706
H       14.94937636      -7.51310577      10.59287262      -0.00882311       0.15593118       0.08800677       0.49051265      -1.36579441       0.17620816
H       14.78581135      -6.41405226      11.98592204      -0.06345530      -0.23749380       0.30230209       0.19802218       0.15444368      -0.10006205
C       16.31860246      -5.65812939       9.63019651       0.37437016       0.96562154      -0.18080093       0.49755951       0.28429281       1.01307654
O       16.79891854      -6.27913433       8.69841116       0.18414444      -1.07889451       0.38810128       0.04265104      -0.58019501      -1.32536661
N       17.11731063      -5.13222146      10.57980317       1.44805864       0.21956421       0.19763612       0.89098407      -0.18056399      -1.10845365
H       16.83579275      -4.48278615      11.24585018       0.01913481       0.10411139      -0.02304399      -1.07481184       1.22207423       1.46167414
C       18.54882132      -5.11411136      10.37980451       0.77297316       0.55590244      -0.27498902       0.25704228       0.31879501       0.44300338
H       18.75286533      -6.19830073      10.12263534       0.14767419       0.06172672       0.13482802       0.59234517       1.38376965      -0.20767240
C       19.02812967      -3.99692170       9.33691430      -0.54451537      -0.45814974      -0.06550103      -1.36623372      -0.54196726       0.03900717
H       18.86898896      -2.93251780       9.74619108       0.02611244      -0.06765307      -0.04562114       0.27075592      -1.73181946      -0.51043995
H       20.06599998      -4.19915110       9.09490749      -0.17222389       0.14778356      -0.25253069       0.24824056       0.32612218       0.04376965
H       18.43963708      -4.15215743       8.39412712      -0.18769801      -0.00374880       0.03852934       0.43450473       0.31912880       0.79900808
C       19.21077643      -4.69828414      11.74335345      -0.53643468       1.25955244       0.12041598      -0.65845769      -0.65044331      -0.91824229
O       18.57812788      -4.06872967      12.61235585       0.56832806      -0.71187803      -1.11892561       1.30400159      -0.72519745      -0.88908691
N       20.53018551      -5.06794489      11.73652574      -0.31610979       1.31987269       0.03144765      -0.71651350      -1.23317910      -1.62217599
H       20.83765913      -5.80790955      11.02819990      -0.34008448      -0.15183354       0.04438867      -0.99638435       1.75791360       1.22148972
C       21.37773739      -4.95377010      12.87481492      -0.42210730       0.96252977      -0.17233704      -1.30681120      -0.10150490       1.25013496
H       21.86135662      -5.92892656      12.93718266       0.02511902      -0.20290411      -0.16879613       0.63342101       0.45534589       0.56517898
H       21.99586135      -4.07649391      12.77846281      -0.10552141      -0.13811531      -0.23305827       0.79386924       0.02725831       0.16469785
H       20.68470657      -4.78794420      13.74562045       0.18791938       0.09796775       0.14630218       0.86892102      -0.22835261      -0.48000223
