112
Properties=species:S:1:pos:R:3:momenta:R:3:forces:R:3 energy=-495.8929523159245 pbc="F F F"
H       -8.46991120      -7.68103407      -1.33430943      -0.03787451       0.00424787      -0.28601277      -0.16057221       0.59409771      -0.09057207
C       -8.29829834      -8.74097093      -1.41571466       1.04051796       0.61751982      -0.70287476      -0.28710139      -0.02811541      -0.56378964
H       -9.27315046      -9.26443067      -1.39970610      -0.46545842       0.10759580       0.04922840       0.58086217       0.16411303       0.70526669
H       -7.59759803      -8.99386958      -0.60475780      -0.09025310       0.03534205      -0.03161608      -0.44829032      -0.38792321      -0.27225905
C       -7.73046893      -9.17743892      -2.74757197      -0.10015415      -0.49274230       0.07944855       0.56224297       0.35803136      -1.11318896
O       -7.69935400     -10.36558257      -3.01863568      -0.51133448       0.23641589      -0.05730387       0.31634250      -0.34936870      -0.29411113
N       -7.27561156      -8.18518283      -3.65702085       0.35988099       0.25388609       0.44888819      -1.01765538      -1.50991089       2.88707747
H       -7.39352162      -7.30524775      -3.20135968      -0.33758916       0.05694451      -0.03515737       0.52887406       0.98244618      -0.49162386
C       -6.42392788      -8.42468973      -4.78884835      -0.18078715       0.46435765       0.24722200      -1.02815724      -1.10731163       0.15150043
H       -6.66239174      -9.48776878      -5.06201650       0.09592055      -0.13239128       0.00390017      -0.12583455       0.77002059      -0.21627278
C       -6.83781137      -7.40824066      -5.86904855      -0.06028295       0.28555746      -0.34676441       3.49639712       0.27278497      -0.58529615
H       -6.58772122      -6.36974756      -5.55835644       0.05364720      -0.09361110       0.27162391       0.16058345      -0.57596298       0.04977033
H       -6.21144115      -7.60809864      -6.78794101      -0.04633595      -0.10910450       0.14347776      -0.84603336       0.28644657       0.80003855
H       -7.86279606      -7.37040535      -6.08374170       0.07115060       0.00972746      -0.22819460      -1.49592157      -0.63114045      -0.24452324
C       -4.90255698      -8.52675509      -4.46597877      -0.57060124      -0.41294819      -0.34083119       1.10204983       2.46024325       0.10339291
O       -4.10757807      -8.25497664      -5.35788880       0.29417425       0.20792807      -1.34494829       0.34076561      -0.68590067      -0.32596597
N       -4.53952636      -8.61350085      -3.13762146       0.72242318      -0.30017095       0.59294749      -0.61209086      -1.11844758      -0.62464010
H       -5.37526750      -8.88474012      -2.65739577      -0.30251780       0.03092608      -0.03781942       0.23614682      -0.28267387       1.42168962
C       -3.16338453      -8.76497701      -2.57063587       0.85100307       0.41823293       0.10053283      -0.45351165       0.85466227      -0.38888039
H       -2.53610606      -9.32432350      -3.31137964       0.07829726       0.11696152      -0.14805434      -0.38376253       0.58695922       0.53009159
C       -2.65145455      -7.30188238      -2.35904482      -1.55590218       0.29660146       0.23872066      -1.26625343      -0.53804903      -1.49155236
H       -2.89186909      -6.80323355      -3.28604396      -0.17085504       0.10510152      -0.15603733       0.28936447       0.16265717      -0.61752085
H       -3.22069822      -6.70958317      -1.65995241      -0.02822859      -0.05113396       0.08903423      -0.13231108      -0.40330609       0.84103421
H       -1.61411720      -7.25236182      -2.21794892       0.16368601       0.02270567       0.15304821       1.50137754       0.09547800       0.51772344
C       -3.11903057      -9.41693546      -1.18087352       0.81319015       0.52941703       0.24284482       0.07061836      -0.89148346      -0.96564611
O       -4.07111173      -9.41869285      -0.43385022      -0.32458523      -0.25727508       1.19355512      -1.18520036       0.51019660       0.74809773
N       -1.95094569     -10.04991974      -0.82442297      -0.40915119      -0.43411613       0.43595742       2.19244647       1.12758184      -2.35423721
H       -1.08638208      -9.86184319      -1.44933735       0.00416350       0.02698857      -0.05597556      -1.91169599      -0.36679337       1.05028508
C       -1.51221809     -10.04251507       0.54863445      -0.14759042       0.55317137      -0.04464420       0.79667102       0.69250110       0.42146169
H       -2.37687571      -9.91572467       1.16199337       0.00992922      -0.09100948      -0.08937280      -0.78338826      -0.11661781       0.39841908
C       -0.77027773     -11.30537782       0.87822689       0.61783074      -1.01081237      -0.23827547      -0.27381650      -0.65258321       0.39255780
H       -0.92234022     -11.58804609       1.91991047       0.03179384      -0.16830311      -0.05041703      -0.11050800      -0.11069131      -0.00563226
H       -1.17290292     -12.06167696       0.21682487      -0.07396868      -0.18741621       0.04328113      -0.10918584      -0.50791875       0.15012770
H        0.29153877     -11.28714112       0.72458865      -0.09359904       0.19597705      -0.20959305       0.58546565       0.41983021      -0.30390965
C       -0.62294944      -8.78711327       0.69846596       0.53969521      -0.33910468       0.16483659       0.63016419      -0.69369575      -1.13413332
O        0.35544505      -8.63927349      -0.05651078      -0.20230030       0.17000087      -1.00908008      -0.62945472      -0.15647270       0.42378114
N       -1.03535830      -7.84878378       1.55180060       0.66326210       0.68448518      -0.92931832       1.33215765       1.01613371      -0.48971889
H       -1.74449226      -8.03948832       2.21822674      -0.17376082       0.07143246      -0.02741050      -0.70864601       0.00678002       0.43841451
C       -0.43441672      -6.50133280       1.49153127       0.28727332       0.81683293      -0.00008524      -0.20464719       0.62167121      -0.51997743
H        0.39652619      -6.48972216       0.75226723      -0.11746867      -0.08062515       0.05419778      -0.78628814      -0.49252107       0.15664824
C       -1.52202588      -5.48246637       1.13420475       0.19197881      -0.23693881      -0.36478691       0.32298170      -0.15017732      -0.15016364
H       -1.17110502      -4.48306531       1.30662727      -0.21746334      -0.05636262       0.23997399       0.26710025       0.55178829       0.16346298
H       -1.91940080      -5.50680438       0.11987549      -0.25070997      -0.34567859      -0.16088888       0.36225500      -0.47679492      -0.14181377
H       -2.34831115      -5.64297650       1.79015932       0.00951828       0.00654024      -0.12997089      -0.68833175       0.00849799       0.60568640
C        0.21740044      -6.14200905       2.81667060       1.32344697       0.44378861       0.10405454       1.59402266      -0.91101684       1.14011873
O       -0.29534229      -5.45422847       3.69140246      -0.31555625      -0.90454869      -0.73388153      -0.07132799      -0.09640036      -0.22160897
N        1.47254567      -6.75803091       2.99690312      -0.46391679      -0.07462765      -0.38212273      -2.08791579       1.16999765       0.11283214
H        1.89656392      -7.16949577       2.19816421      -0.14461620       0.26601020       0.06482993       0.51337246      -0.57319726      -0.47022224
C        2.21908266      -6.65089972       4.21407857      -0.16848484      -1.09206261       0.86185797       1.97933490       0.09502147       0.04431831
H        2.32094011      -5.62001069       4.56677655      -0.07143005      -0.08507222       0.11809663      -0.32817050       0.24030280      -0.39542317
C        1.68700759      -7.48101823       5.37433202      -0.30441974      -1.02478207       0.52510956      -0.00564288      -1.38380553      -1.84093250
H        2.41086848      -7.65059922       6.13240238      -0.09286752       0.01967533       0.12888609       0.69811245       0.11674750       0.77243533
H        0.78200255      -7.11379406       5.78638819       0.12601542       0.41940729       0.03005536      -0.84059593       0.52723816       0.30310156
H        1.49864041      -8.45281500       4.89684087      -0.13950098      -0.08434455       0.07425230      -0.21125515      -0.11361238       0.47408623
C        3.74850840      -7.09619241       3.92365436      -0.67442702       0.55245549       0.90347099      -0.35410229       1.71319941       1.85790529
O        4.13608948      -7.86657869       3.07149014      -0.73888339       0.53562550      -0.25156578      -0.09801506      -0.13854224      -0.21514085
N        4.55970729      -6.40112731       4.84499093      -0.28451692      -0.00921316       0.69526478      -0.14354634      -1.20936229      -1.06702548
H        4.05625195      -6.01810842       5.62352919       0.11430485      -0.33447791      -0.31520173      -0.08752861       0.48834218       0.41174422
C        5.93277616      -6.75967338       5.20617527      -0.59666653       0.38637375      -0.71192268       0.44435487       2.81848359      -1.07371847
H        5.99153273      -7.79177310       5.30609619      -0.03226538       0.14037892       0.04759032       0.31836010      -2.17618150       0.12346052
C        6.98367951      -6.29933740       4.05554510      -0.56212007      -0.62655572      -0.16883864      -0.91063917      -1.14047315       1.80695471
H        6.73827590      -5.33616895       3.67918495       0.28725707      -0.02694803      -0.37695014      -0.19149865       0.83411608      -0.16033043
H        8.02850494      -6.36780680       4.32825125      -0.06400377      -0.01224586      -0.09292398       0.23160625       0.30878641       0.64664609
H        6.91886887      -7.02614745       3.28605625       0.22663347       0.15123476       0.23673050      -0.51294630      -0.57114835      -0.99096873
C        6.19223689      -6.16540747       6.62903786      -0.22600153       0.18994299      -1.02451985      -0.42476032      -0.02170499       0.21016039
O        5.32392824      -5.61466571       7.31386807       0.58660789      -0.23477631       0.35879512      -0.00830503      -0.06084709      -0.55285810
N        7.43303718      -6.39590890       7.08937761       0.03333791       0.77176314      -0.17800063      -1.86668161       0.98333602       0.62840182
H        8.01668795      -6.86676660       6.48609251      -0.02918597       0.08965683       0.18719507       1.93818099      -1.12850903      -1.34486724
C        7.95464491      -6.05247349       8.37199516      -0.36069850       0.98135405       0.47941259       0.15248846      -0.46809293       1.12249002
H        7.64710825      -5.03616491       8.68975128      -0.10321612       0.17306738       0.16061518       0.29409618      -0.18261255      -0.54806637
C        7.39561580      -6.98851383       9.51422979       0.39282208      -1.37280772       0.00724543      -0.44118017      -1.02785194      -2.27891005
H        7.47838325      -8.06929049       9.16387993       0.17382483      -0.10586629       0.23312639       0.01462940       1.26878757       0.67842898
H        7.85991938      -6.82870408      10.44550679       0.10414652      -0.20408508      -0.02958486       0.97636214       0.07378184       1.05590969
H        6.33839361      -6.75844462       9.66963734       0.13007982      -0.34023811       0.05145241       0.01380950      -0.04732947      -0.30600603
C        9.50807249      -6.13641859       8.17593536      -1.03741533      -0.48924709      -0.31354953      -1.55861423       2.23767941       3.49936290
O       10.01366298      -6.59293126       7.20622595      -0.16151592       1.12190034      -0.90747347       1.20478796      -1.57302271      -2.52525409
N       10.23078792      -5.56959690       9.22236625      -0.13281083       0.05547591      -0.22818311      -2.55106799       0.83176992      -0.06673246
H        9.70439668      -4.89150674       9.80104639      -0.10155048      -0.29777615      -0.14320895       0.39126268      -0.86772324      -0.31570735
C       11.60424532      -5.26872149       9.03995512      -0.79139217      -0.87891194      -0.47044221       0.60363527      -1.54619283      -1.94371309
H       11.80250840      -5.61325028       8.00645183       0.04613639       0.04377453       0.10946585       0.25311561      -0.51904345       0.50823728
C       11.92093346      -3.83822355       8.99835990       0.58116079       0.20938413       0.22267150      -0.48815623       3.05874126      -0.82993781
H       12.96102534      -3.52190620       8.76986777      -0.00772893      -0.08343434       0.02031750      -0.46769425      -0.78858003      -0.17253738
H       11.22876724      -3.28090090       8.25059835       0.09305227       0.01299755      -0.04155238       1.10759208      -0.98118998       1.07000431
H       11.74874024      -3.39560134       9.95699971      -0.06250157       0.03386511      -0.19353794      -0.33358155       0.41439348       0.83185187
C       12.35411583      -6.04041250      10.08021780      -0.38708374      -0.16921988       0.01316551       0.47675618       1.27257713       1.28800575
O       12.25567522      -5.74443698      11.28601346       1.19700607      -0.98060802       0.51100342      -0.21189832      -0.28782385      -0.83505287
N       13.23411921      -6.93581021       9.62381914       0.48463544       0.42365714       0.31436417      -0.69462269      -0.38393364      -1.83946983
H       13.30430132      -7.08959836       8.60024533      -0.26013707       0.16287313      -0.05016844       0.12293888      -0.05407889       1.14216925
C       14.23628220      -7.38107147      10.50048191       0.45478918       0.12760516      -0.31484927       2.12607019      -1.16172661      -0.09776576
H       14.22007942      -6.69111796      11.32041346      -0.15054867      -0.06563802       0.03869801       0.29046587       0.66764539       0.38954397
C       14.11501448      -8.76490297      11.17620060      -0.10987386      -0.05068700       1.05031074      -1.23891298       0.88736534       0.98090689
H       13.08676813      -8.90151377      11.60143253       0.07631877       0.02562065       0.04437412       0.71619061       0.16572348      -0.53625172
H       14.38598673      -9.62052976      10.59800987      -0.27463828      -0.14059517      -0.02960225       0.19255497      -0.42951228      -0.59473070
H       14.75553185      -8.66671877      12.04997270       0.15425531       0.25277512       0.18725231       0.25205853      -0.46572312       0.10426917
C       15.57000229      -7.36966102       9.69068539       0.42280632       0.10941233      -0.15705231       0.54129086      -0.78436955      -0.40495296
O       15.57304046      -7.94062595       8.55685769      -0.17320283      -0.38455107       1.06298438      -0.01340690       1.45781436       1.77313557
N       16.71409384      -6.80514515      10.25396605       0.48525768       0.41544705       0.46094991      -1.82254123      -1.15457507       1.04120684
H       16.79448576      -6.75374549      11.30436487      -0.08354830       0.24548481      -0.00497452      -0.59161181       0.12901339      -1.50749359
C       17.99261055      -6.97874290       9.62753166       0.26381240      -0.03573376      -0.66236851      -0.39039013       0.31463264      -4.25394806
H       17.83169804      -6.88987286       8.47049654      -0.10556786       0.03538778      -0.00442279       0.01985544       0.70087529       1.86816371
C       18.96187621      -6.03107512      10.22197253      -0.21899383      -0.49886774       0.33250114      -0.36626947       0.12151253      -0.37306458
H       19.87057582      -5.99928687       9.68428447       0.14935890      -0.31902677       0.07672767       1.03525500      -0.14945894      -0.73430873
H       18.58137050      -5.02676041      10.25083878       0.29082097      -0.01256762      -0.02915085      -0.31340760       0.38167590       0.47108545
H       19.17923851      -6.53074397      11.13261011       0.13503683      -0.04887722       0.13992184       0.47635940       0.39913232       1.46858063
C       18.52334694      -8.38087025       9.67821597      -0.19486095       0.40873049       0.12637705       1.31565695      -0.42521157       2.28843615
O       19.36108084      -8.62950570      10.57093747      -0.17989359       0.04173474       1.04868532      -0.49302390      -0.64816631      -0.86703571
N       18.00562022      -9.23840897       8.79084730       1.32078867       0.62357857      -0.33511810      -0.95444382      -0.21477889      -0.51956471
H       17.12029446      -8.83422509       8.37141307      -0.01542722      -0.23444941      -0.16826246       1.06127009      -0.86651327       0.24869704
C       18.10615545     -10.68080841       9.01011040      -0.23367631       0.29936675      -0.28744667       1.45378466      -0.51551410       2.00939173
H       18.67540235     -11.27491987       8.25517702       0.02996068       0.11979834       0.03114032      -0.40985485       0.79967323       0.33441009
H       18.60283811     -10.87820685      10.06090814       0.08957619      -0.09418616      -0.01075791      -0.62565042       0.62495078      -2.07428562
H       17.12062938     -11.08087308       9.13284598      -0.14866826      -0.09772756      -0.20860357      -0.72657994      -0.34455141      -0.31966575
