112
Properties=species:S:1:pos:R:3:momenta:R:3:forces:R:3 energy=-498.41466588881605 pbc="F F F"
H       -6.16935105      -5.61189732       1.72613908       0.03049352       0.01260935       0.06314315       0.48871679      -1.57973494      -1.01998960
C       -6.25805893      -4.84913182       2.42983713       0.67465758      -0.47706514      -0.42994974       1.26962323       1.36141329      -0.96323014
H       -6.87528344      -5.20061027       3.19290838      -0.01954013       0.32314674       0.03811027      -0.97580479      -0.05582093       1.52504440
H       -6.65464839      -4.04906790       1.84494310       0.08327320       0.24270220       0.30196934      -1.12953560       0.74074807      -0.04093097
C       -4.89172689      -4.34785038       2.77487954      -0.31821247      -0.24662665      -0.37819273      -0.12163463       1.12081658       1.65923400
O       -3.85949542      -4.91261083       2.47363681      -1.08183881      -0.18572797      -0.81768686       0.95791445      -0.71399050      -0.88297738
N       -4.81075427      -3.15699174       3.49273536      -0.41329465      -0.73262708      -0.40940444      -2.74629455       0.16657598       1.19227297
H       -5.71416572      -2.75715543       3.93465553       0.00709379      -0.05151722       0.19128134       2.11276459      -0.89904857      -1.19268457
C       -3.56125047      -2.50796686       3.82076899      -1.08593512       0.16921469      -1.41603300       1.04825017       1.85218017      -1.23921174
H       -3.09691090      -2.11086134       2.83462592      -0.11279224       0.31283381       0.01743962      -0.58728307      -0.56664403       1.46939864
C       -3.72046851      -1.29662887       4.80970143      -0.40188971      -0.12668119       0.64925534       0.90072914       0.40819516      -0.64863491
H       -3.75020052      -1.62322928       5.85085332      -0.00901036      -0.17740948      -0.38165212      -0.19695234      -0.14592600      -0.06881452
H       -2.79686300      -0.64317451       4.71608235      -0.05828504       0.08077352       0.04298072      -1.10000405      -0.79881148       0.01689734
H       -4.60069547      -0.67630021       4.59273176       0.04814922       0.27331665      -0.04872875       0.16530693      -0.18979687      -0.08485746
C       -2.48691914      -3.36284923       4.47051635       0.87724454       0.84668221       0.17372975      -1.13554290      -1.16705701       0.42086109
O       -1.29608207      -3.10818019       4.42809924      -1.13085651       0.15373714       1.14064973       0.80418790       0.42173045      -0.29275468
N       -2.97786584      -4.39521268       5.20542095      -0.34934584       0.68039080       0.24241930       1.91268141      -0.98228660       1.53080334
H       -3.91131477      -4.69823149       5.10554618      -0.02704270      -0.06152094       0.11760951      -1.01476420      -0.03416205      -0.15516371
C       -2.03898961      -5.38871698       5.89624439       0.55549837      -0.00353157      -0.23386543      -0.99863145       0.46309463      -2.38000343
H       -1.28457416      -4.85072774       6.45624403       0.14629277      -0.03053781      -0.04473983      -0.12228974       0.33761387       0.25232790
C       -2.76834702      -6.41939762       6.73825235      -0.28135524      -0.11359588      -1.22649747       0.66117961      -0.21634112       0.19174691
H       -3.49775978      -6.98219571       6.16001614      -0.33444126       0.19950502      -0.03263128       0.02430913      -0.15425065      -0.19548612
H       -2.02647360      -7.13234266       7.20339819      -0.07968249      -0.18580038       0.00194057      -0.80921046       0.86805416      -0.53009840
H       -3.30267235      -5.87447066       7.48893444      -0.11062844       0.24391162       0.22228877      -0.35757627       0.07897062       0.82357570
C       -1.19688774      -6.11858737       4.85456388      -0.54324165       0.36110691      -0.29150474       2.51317981      -0.76045984       0.99992781
O       -0.18802737      -6.65697076       5.36448383       0.20396152      -0.08749365       0.70476461      -0.17889157      -0.28037881      -0.62293595
N       -1.44115716      -6.10757463       3.53781948       0.03757748      -0.28030194      -0.15373998      -2.37227604       2.06562909       0.63563314
H       -2.27016821      -5.52152938       3.33871638       0.29606250       0.03100314      -0.16512536       0.46540700      -0.54769605      -0.58011440
C       -0.61049943      -6.55981436       2.48432738      -0.03386491      -0.36366637       0.68807218       1.97579413      -1.60287627      -0.78517136
H       -0.63509966      -7.65098680       2.46972112       0.20518558       0.18530990      -0.05264282      -0.02466308      -0.21287581      -0.05210060
C       -0.93174491      -6.05753624       1.04041259      -0.85990212       0.21427697      -0.43019576       0.45158987       0.95529990       2.22537923
H       -0.87434988      -4.93890730       1.14843211       0.11237194       0.03288839       0.62301412      -0.03201669      -0.90621695      -0.76191872
H       -0.12379622      -6.48899477       0.40834835      -0.08600114       0.07071107       0.08169497      -1.03614044       0.39418877       0.07693301
H       -1.95809718      -6.35219657       0.89287263       0.19477161      -0.10286054      -0.16297260      -0.22558823      -0.12194368      -0.93912374
C        0.90057064      -6.23998352       2.66570182       0.54382961       0.47633699      -0.22803866      -1.84260971      -0.32076185      -0.04988974
O        1.77016951      -7.00714542       2.25905651      -0.52635923       0.02971715      -0.28508914       0.43829009      -0.07625355      -0.17503206
N        1.09982953      -5.02140761       3.14972361       0.33288110       0.24484004      -0.13362631       0.52984882       1.07816342       0.88623359
H        0.31493741      -4.50637127       3.64105450       0.04863895      -0.00230676       0.23595414       1.21190379      -0.74482309      -0.85692967
C        2.47332559      -4.52928952       3.32737404       0.22750063      -0.04222418      -0.58682459      -0.13854910       0.47148103      -0.54391486
H        2.97805587      -4.28264312       2.36132243       0.02713585      -0.02208749      -0.21062482      -0.62333729      -0.46781583       0.31995101
C        2.33477129      -3.22253962       4.07971483      -0.78128338      -0.62262625      -1.37193340       1.53864534       1.53444527       1.03707296
H        2.18205537      -3.35773649       5.16724026      -0.30818374      -0.09583265       0.22090919      -0.39210694      -0.17589670      -0.48598304
H        3.30340213      -2.63881932       4.05902487      -0.38069916       0.11723921      -0.08342808      -0.90567116      -0.63819989      -0.26389285
H        1.54738269      -2.56312106       3.66443014      -0.14514932      -0.08934891      -0.01702816       0.31749782      -0.51711309       0.16039311
C        3.44530209      -5.48524441       4.04851026       0.66468802       0.31183756       0.04338915      -2.45357520       0.77182116       1.18856682
O        4.63856112      -5.26579767       4.03894896      -0.15353038       0.70246820       0.88015749       1.45494549       0.00993614      -0.61485593
N        2.89616840      -6.37469488       4.92034949       0.53425165       0.15948346      -1.42809679      -0.07601583       0.17477479      -0.84596817
H        1.90864299      -6.62692049       4.94223508       0.02972159      -0.06491093       0.10090585       0.02068752       0.37442050      -0.21789815
C        3.77260828      -7.20729316       5.65561836       0.21342549      -0.01034647      -0.21576271       0.20329289      -1.20858679       2.07242568
H        4.44579181      -6.60040094       6.34011216       0.17508754       0.03289309       0.23566901      -0.67979806      -0.63043741      -0.77232981
C        2.90621388      -8.19629974       6.52125583       0.02627828       0.78386540       0.80862305       0.58469913       0.69086207       0.43210553
H        2.24155233      -7.62070822       7.20860516       0.00735650       0.21067791       0.19202774       0.30599102      -0.51749202      -0.62268113
H        2.36014451      -8.91700980       5.90018826       0.22243934      -0.36212177       0.09751208      -0.12420769       0.42533052       0.02213930
H        3.61093484      -8.77971779       7.11793851      -0.03221486       0.50878833      -0.01717638      -0.10537029       0.04300298       0.10796768
C        4.69282005      -8.12032608       4.85134250       0.74634804      -0.35362673       0.12844437       0.90939032       0.58246779       0.42546957
O        5.73809519      -8.58255494       5.33923947      -0.26745410      -0.30937851      -1.30589710      -0.58174373      -0.15138407       0.42109863
N        4.35107384      -8.36148021       3.59159923      -0.66193745       0.41825130       0.51917030      -0.94998659      -0.31113159      -2.23053140
H        3.61643837      -7.78319676       3.11084959      -0.21044557      -0.28353202       0.00945493       0.59437636      -0.89124562       0.86636224
C        5.23560917      -9.13956836       2.67499792      -0.11890211      -0.55185635       0.06471564      -0.48713945       2.34772381      -1.08095931
H        5.38271827     -10.15487833       2.95110357       0.25521560      -0.11406912      -0.33645647      -0.16743845      -0.88769994       0.62830398
C        4.56117428      -9.10356045       1.23360176       0.64541354       0.00937201       0.86429935       1.77561805      -0.27600913      -0.14517938
H        4.29059406      -8.09605333       0.89245825       0.18975947       0.05284978      -0.15881848       0.45630690      -0.00069113       0.22341697
H        5.22439290      -9.60939768       0.43924429      -0.16909627      -0.09455233       0.01913233      -0.92441525       0.77709562       1.35403259
H        3.62589113      -9.61818494       1.29844701       0.02711784       0.11581551       0.12259600      -0.55878417      -0.62571956       0.03797296
C        6.64612000      -8.51522353       2.71142406       0.41290287      -0.03380509      -0.10724125       1.32268262      -0.22212888      -0.57569141
O        7.65121684      -9.15214817       2.37601726       0.28914770      -0.03830928      -0.95165251      -0.15404571      -0.82720975      -0.35410505
N        6.79347249      -7.24875895       3.10145802      -0.02698756       0.40512300       1.05398121      -0.21056553       0.15506275      -0.51792928
H        5.93933053      -6.81773335       3.35132447      -0.03939164      -0.24720672      -0.02213836      -0.59562408       1.19377340       0.41404659
C        8.05238276      -6.48619256       3.13382658      -0.56715918      -0.53474959       0.15002085      -1.78892044       0.14529809      -0.45419891
H        8.50099894      -6.50035941       2.15168711       0.10026876       0.01666566      -0.20424772       0.16932445      -0.09493152      -0.45301944
C        7.64581283      -5.00964057       3.49207368      -0.32649222      -0.08904922      -0.16070748       1.02286585      -1.49273344       1.62118419
H        7.04318628      -5.09668288       4.43168929       0.34948124      -0.14743894      -0.17391088       0.38412054       0.45681084      -0.79273567
H        8.60897624      -4.54414126       3.74600499      -0.04279437      -0.03058019       0.04568698      -0.44818126       0.43204522      -0.24629513
H        7.07541952      -4.49114707       2.71799710       0.04098817       0.20092335       0.05729359       0.23775764      -0.24151676       0.05818941
C        9.08116154      -7.16631233       4.02828899       0.79264074       0.52276834       0.09084351       0.16976042       1.47527239      -0.33360187
O       10.27849385      -6.94403239       3.82214927      -0.11622472      -0.54055636       0.08137108       0.02328832      -0.32196214       0.10290455
N        8.60321592      -7.91578495       5.01614509       0.21275340      -0.35411598       1.18354806      -1.03948768      -0.37974089       1.33073589
H        7.57558103      -7.92597341       5.19080556       0.11297197      -0.06530275       0.08138552       0.93521426      -0.36871384      -0.22814579
C        9.53530905      -8.52572382       5.97517782       0.59416732      -0.21185883       0.03907344      -0.10858184       2.19045315      -0.40542045
H       10.28260800      -7.72852163       6.15057833       0.23252482      -0.06702015      -0.13504416       0.10633709      -0.39547931      -0.09856225
C        8.91332771      -8.86441080       7.32419922      -0.65435017       0.47449089      -0.45672633       0.12690023      -1.39197194      -0.23707147
H        8.51835767      -7.99667915       7.86797697      -0.29873698       0.06359419       0.03783641      -0.08131107      -0.26256827      -0.41186031
H        8.16995170      -9.66889591       7.13645469      -0.13718671      -0.00543822      -0.01176014      -0.03721431       0.69024615       0.45323235
H        9.70825005      -9.34294755       7.92488165       0.17100015      -0.16964287       0.22744394      -0.31580001       0.34006430      -0.20077056
C       10.26857078      -9.67537205       5.37035585      -0.71538743       0.14954417       0.77439252       1.46753059      -2.00732230       1.67692677
O       11.08952047     -10.28370302       6.11776122      -0.64029878       0.86920066       0.10182291      -0.64428378       0.38536429      -0.77729325
N        9.98726668     -10.13427552       4.15237586      -0.23842168       0.34959611       0.37934216      -0.46818781       0.50842274      -1.06391355
H        9.47682581      -9.56244821       3.47822357       0.30531675       0.11515322       0.01900867      -0.26149179       0.03049103       0.52585183
C       10.25988358     -11.45423794       3.63848631       1.03616290       0.30827820       0.10467182       1.39401293      -0.08566704      -0.45638413
H       10.22962091     -12.19238259       4.43030959      -0.27652078      -0.03795638       0.23749242      -1.11617516      -0.17708217       0.56831876
C        9.35149850     -11.70749184       2.43893985      -0.45372514      -0.25584911       0.10201078      -0.69728874      -0.16252106      -0.09984316
H        9.50770621     -12.71972692       1.99628502       0.12861864      -0.06668804      -0.11252916       0.03570373       0.94235193       0.35973319
H        8.29730500     -11.58385682       2.75112623       0.28120147      -0.02085000       0.31306899       0.45109151      -0.25085455      -0.09741370
H        9.49653434     -10.89560547       1.69407764       0.00205301       0.17532788       0.04446600       0.13139055      -0.65228503       0.23055379
C       11.71452492     -11.83787864       3.27803829      -0.41508687      -0.60422045       1.24299076       1.08414518       0.88982309      -0.07808778
O       11.87284237     -12.95136982       2.79519582       0.40772625       0.19277205       0.74051989       0.53280236       0.09277095       0.02850959
N       12.74670169     -10.96098753       3.60397873       0.47337512       0.48576272       0.68817104      -1.15936700       0.39336074       0.46403513
H       12.48502439     -10.10998714       4.12179358       0.30469211      -0.10074990      -0.18627592      -0.06744346      -0.67774755      -0.43208799
C       14.14334483     -11.31339378       3.70309662       1.28756327      -1.03683917      -0.34228784       0.72285366      -0.47316150       0.92926592
H       14.34692733     -12.00720014       2.90485906      -0.36999633      -0.25374110      -0.29678031       0.35769183      -0.09555056      -0.54020168
C       15.05223676     -10.08953233       3.77271390       0.61364462      -0.47442360       0.02383828       0.29398687      -0.14485385      -0.24124600
H       15.10449662      -9.59110766       2.82491213       0.09313616       0.07194703       0.30150313      -0.53192737       0.75735396      -0.51883652
H       14.67420229      -9.44406270       4.58971957       0.26433640      -0.01257361       0.11437122       0.50165202      -0.05206745      -0.46667086
H       16.11450108     -10.37267353       3.91065439       0.13419185       0.14410795       0.04659686      -0.69929222      -0.14229805       0.55308515
C       14.57303003     -12.11336015       4.98030148      -0.53931220      -0.25228061      -0.75913729      -2.81494673       0.16473292      -0.24981891
O       15.60609703     -12.74409088       4.99328241      -0.22945730      -0.73028856      -0.66239643       0.84737857      -0.32807216       0.35036151
N       13.63118362     -12.08679431       5.97479258       0.38182686      -0.67024306      -0.22099927       0.79029629      -1.00608818       0.79240893
H       12.72706606     -11.65410550       5.89511386       0.07605603       0.04296453      -0.14182881      -0.06924908       0.56111910      -0.60669051
C       13.69545633     -12.98845402       7.11973676       0.31254536       0.14023640       0.17837755       0.59836507      -1.25242436      -0.76672766
H       14.39418262     -12.72314624       7.88677004      -0.27897521       0.10699085       0.05597605       0.66309768       0.48954450       0.29256655
H       12.74758630     -13.07097693       7.58719515      -0.33253562       0.22467646      -0.24080905      -1.12335196       0.34242245       0.32576291
H       13.93090411     -14.04160024       6.83741948      -0.00955926      -0.37111770      -0.11959262       0.14520809       0.73171220      -0.23434987
