112
Properties=species:S:1:pos:R:3:momenta:R:3:forces:R:3 energy=-496.70510968458257 pbc="F F F"
H       -1.54166128       5.19391799       2.08871330       0.06290314       0.24596654      -0.00214444       0.21837956      -0.81597856       0.22916286
C       -1.66005108       4.16895839       1.67319072       0.64453729      -0.45990434       0.06066205       0.21483555       1.32298164       0.03403459
H       -1.96912858       4.36394775       0.66303663      -0.07696637       0.09336299      -0.30212118      -0.27178030      -0.09203497      -0.74985941
H       -2.45951026       3.63537632       2.12979588      -0.08685940       0.17641173      -0.05849263      -0.67204093      -0.28954053       0.53570312
C       -0.47358535       3.26448387       1.56421266      -1.03633163       0.20130160      -0.52125384       0.34676007       1.41080844      -0.19326193
O       -0.64138745       2.12876108       1.15009050       0.17786121       0.32508498      -1.11073685       0.74137340      -1.10646399       0.17025620
N        0.72630392       3.85598037       1.87250131       0.33264738      -0.45442686       0.03241437       1.22203297      -0.67547258      -0.84553658
H        0.68020918       4.82848828       2.03244532      -0.08902277      -0.06052479       0.01423003      -0.26271185       1.03442665       0.38892570
C        2.13746906       3.45442520       1.49942070      -0.14200312       0.03273024      -0.60073894      -0.09785069      -1.28615626       1.15172287
H        2.11299122       3.00798407       0.48816202      -0.01857973      -0.02026472      -0.16449686       0.08251345      -0.15140686       0.50061249
C        3.07110182       4.63615960       1.59584623       0.17849786       0.07339299      -0.66190237      -1.96057860       0.88397227       1.23329679
H        2.80553423       5.10190976       2.56540382       0.12803463       0.15428014       0.03536073      -0.02577645       0.33935179      -0.40597405
H        4.08877074       4.44234518       1.76459783       0.00837875       0.20949531       0.02402494       1.34459014      -0.95151027      -0.36180098
H        2.92855557       5.34671887       0.80230966      -0.11366716      -0.30733784      -0.04108120      -0.03031745       0.36424729      -0.37564518
C        2.64958016       2.38330413       2.62243212      -0.31147696      -0.02897108      -0.67326967       0.20138688       0.85547434      -1.99799986
O        3.82600166       2.28357762       3.01155843      -0.34132232       1.09996166       0.17686263      -0.66534053       0.56645233      -0.21549288
N        1.66330046       1.60474135       3.01853642      -1.18023326       0.05592449       0.57060832      -1.01355093      -1.37450913      -0.04556022
H        0.76070540       1.54682490       2.48718274      -0.08042155       0.08804405      -0.10688013       1.00979177       0.27706129       0.43324718
C        1.81794889       0.64809152       4.11304942       0.40775155       0.41583954       1.32775594       2.71859273       2.14320447       1.27348065
H        2.55801424       1.17658586       4.86345051      -0.09728606      -0.14622637      -0.07292145      -1.16391695      -0.81042122      -1.21414679
C        0.49358066       0.48778913       4.71587849       0.18697775       0.37098347       0.15273578      -1.14512290       0.84963227       0.76542460
H        0.52344960       0.04827741       5.71502983      -0.04967260      -0.03014781       0.02627792      -0.13323587      -0.23975202      -0.32734926
H        0.03361953       1.51462041       4.79002572       0.41463536       0.03319694      -0.27108342       0.28408430      -1.07987023       0.02557475
H       -0.04301609      -0.10358814       3.99427044       0.24469024      -0.17730084       0.15005085      -0.90650880      -0.44065695       0.18682956
C        2.53054794      -0.62511322       3.74081211       0.27607162      -0.92517355       0.45936852      -0.65392011      -2.77984539       0.85926526
O        2.07247464      -1.75245187       4.12591617       0.44781904      -1.37269979      -0.02302067       0.95507519       2.27422840      -1.13944645
N        3.70786098      -0.50115800       3.06991524      -1.55375358       1.06941672      -1.10962489      -1.07362177      -1.45985293      -0.41598059
H        3.98077799       0.41675765       2.87186404       0.01516769      -0.09609642      -0.02388809       0.57946874       1.89485721      -0.43180999
C        4.15068531      -1.57495479       2.16560125       0.16784313       0.92031507       0.57077004      -1.32568744      -0.86615677       1.04780646
H        3.27635215      -1.99956401       1.63479036       0.13558860       0.09120442      -0.36246979       0.18526601       0.36681446       0.16302727
C        5.17943654      -1.11936395       1.17680402       0.14771568       0.89310877      -0.24473611      -0.10055405       0.27053063      -0.42438695
H        4.61817705      -0.53418363       0.42771340       0.09313271       0.04900473      -0.03938372       0.64752632       0.20418958       0.21774998
H        5.92766749      -0.53846533       1.72180005      -0.01548560       0.03301485       0.09811498       0.13778056       0.11053765      -0.45584721
H        5.65010342      -1.95212803       0.62994274      -0.01594540      -0.09676295       0.00405520      -0.19270160       0.17797659       0.46561822
C        4.57396963      -2.74171888       3.02582368       0.45885515       0.46270910       0.53960680       1.40113658       0.32973605       1.16176272
O        4.42475850      -3.87585672       2.60850620       1.09697601       1.03483882       0.69316626       0.28180261      -0.82595197       0.10177915
N        5.22743973      -2.38527568       4.21618293      -0.02719561      -1.22559158       0.05759832      -1.22643731       1.39534106      -0.53854243
H        4.95479754      -1.40476042       4.53687308       0.14152435      -0.07811750      -0.07509626       0.71039004      -1.81848683      -0.63399387
C        5.73489763      -3.28941895       5.23690123       0.60718797      -0.19660897       0.61996131       0.68137053       0.60494292      -0.33684840
H        6.58863711      -3.90014318       4.84961177      -0.09219225      -0.42911956      -0.21499802      -1.02932826       0.00816234      -0.23278265
C        6.45059871      -2.48601879       6.32381136      -0.21073105      -0.16787998      -0.68460562       0.34578775       1.59425880      -2.04759346
H        5.83509140      -1.72689511       6.79072302      -0.27296994      -0.02052388      -0.21411298      -0.39854559      -0.01638881       0.29794216
H        6.82722572      -3.18008945       7.01512832      -0.05533392       0.09554852       0.00893452       0.66315472      -0.65027767       1.08708307
H        7.26048340      -1.91522323       5.77681882       0.10545026      -0.36704779      -0.01526278      -0.51282513      -0.69228103       0.86443165
C        4.72917690      -4.22398449       5.83029213       0.89772118      -0.01698877      -0.16704315      -0.05054454      -1.84221458       0.34162760
O        5.13884495      -5.13081819       6.58058331      -0.21938833       0.03635502      -0.07421676      -0.06759600       0.78338710      -0.30217062
N        3.42824196      -4.19870173       5.44126418       0.03232032      -0.37327040       0.13331498       1.89956369      -1.20223975       1.09871110
H        3.06864490      -3.51780998       4.88780017      -0.05347246       0.01589671       0.08252009      -1.14838324       2.60044994      -2.11867851
C        2.60001720      -5.27272682       5.85242425       0.63582892      -0.06330866      -0.28652226      -0.27576256      -0.08262804       0.25008465
H        2.94343785      -5.37630782       6.84466493       0.19846664      -0.13838004       0.19033440      -0.16375702      -1.01680781       1.51250332
C        1.12402785      -4.97565923       5.78763785       0.44210918      -0.64518011      -0.65097700      -1.34101649      -0.39700815       1.35779320
H        0.82054744      -4.68546764       4.80825328       0.05343510      -0.00592289       0.00212022      -0.16934688       0.34224410      -0.93657062
H        0.50773551      -5.88648876       6.04791614      -0.05881346      -0.12949034       0.13456904       0.91717289       0.82772841      -0.20035154
H        0.80586910      -4.17685304       6.49154389      -0.03638777       0.21367093       0.00814317       0.39399441      -0.33740900      -0.38368177
C        2.84079450      -6.58215918       5.13296507      -0.43414595       1.11041500      -0.57119943      -0.45253827      -0.03201401      -0.72073124
O        2.29707784      -7.59793313       5.57030888      -0.24632507      -0.29721061       0.25549817       0.18432883      -0.38152131      -0.11801921
N        3.45483226      -6.50753646       3.92292158      -0.33878069       0.03183301       0.18989398      -1.53146022      -1.32813038       1.38842795
H        3.95715222      -5.69651138       3.71677428      -0.00726193       0.24188279      -0.07148023       0.86742879       1.57429946      -0.68386917
C        3.55389513      -7.63938999       3.03894137       0.03928351       0.16025293      -0.43927015       0.86280132      -1.16598970       0.14230142
H        2.62342071      -8.24174200       3.05157187      -0.01960779      -0.05693295       0.10074152       0.14421599       0.66763969      -0.17865635
C        4.06982681      -7.14239466       1.69173489      -0.12209538       1.08617045      -0.33833665       0.72880907      -0.06162644      -0.47274387
H        4.91352623      -6.47067554       1.94806992      -0.00722145      -0.21401611       0.11233167      -0.28569661      -0.37900432      -0.37876913
H        4.50660464      -7.96689626       1.06546275       0.29168124       0.30493058       0.30191328      -0.59840878       0.71631397       0.63532154
H        3.36803663      -6.53818679       1.09741256       0.22370011      -0.22037731      -0.07409802      -0.09851537      -0.35987854       0.36264556
C        4.67247877      -8.58046488       3.63600271      -1.28561056       0.21752275       1.33594411       1.18846648      -0.09892669      -0.59041929
O        5.83987166      -8.45437233       3.21760956      -0.51508110       1.94062971       0.00234892      -0.91147186      -0.48839999       0.75831462
N        4.28193863      -9.47583506       4.58644656      -0.04844008      -0.43899587      -0.61469059       0.04942075       0.12276086      -0.56996255
H        3.31730646      -9.34526115       4.90857760      -0.15710098      -0.06174111       0.09433143       0.47066262      -0.19296481       0.22463770
C        5.22789701     -10.31797140       5.38554859      -1.32187754      -0.51111911       0.75710339      -2.62495826       1.21758308       0.83116150
H        6.20404168      -9.96198367       5.20188281       0.06215765      -0.23125070      -0.12915890       1.15432584       0.15009876      -0.65924405
C        4.88972090     -10.12879779       6.82906572      -0.52668995      -0.53710213       0.09840620       1.46245772       1.39507287       0.88865598
H        5.63684840     -10.60230256       7.45975800       0.02217070       0.08874568       0.06759277       0.25151908      -0.04552592       0.08397740
H        4.85597113      -9.07347451       7.06969933      -0.08666229      -0.22124447      -0.23831825       0.15457814       0.32190533       0.10695175
H        3.97936880     -10.54508571       7.11591643      -0.13519042       0.00767737       0.04207998      -1.67058820      -0.80966484       0.11342229
C        4.99975586     -11.76229096       5.14623212      -0.50331961       0.01341914       0.39551906       0.42947296      -2.83310396      -2.31014326
O        4.25373676     -12.52963702       5.74132226       0.19046594       0.18842302      -0.56309233      -0.65741636       0.62137768       1.15135213
N        5.70227496     -12.27254198       4.09121238       0.60641919      -0.08013574      -0.18490334       0.03939914      -0.08832733       0.35637892
H        6.23333186     -11.59393830       3.61809976       0.03056500       0.15331707      -0.06177906       1.06116022       0.49555048      -1.06017980
C        5.72122819     -13.69677220       3.69742212      -0.14027270      -0.76696269       1.34768277      -1.64942754       1.55148546       0.67650264
H        4.86216595     -14.07333982       4.32774734      -0.06101986      -0.09446556       0.10652806       1.34931421      -0.27150205      -0.25091282
C        5.30531498     -13.87800569       2.24238865      -0.42589280       0.62159418       0.13901178       1.15967488      -0.09675140       0.23956815
H        6.00197866     -13.45420207       1.52205040      -0.01970488      -0.14381810       0.21369374       0.22138296       0.00311919       0.13573356
H        5.23117509     -14.92710164       2.08803737       0.12951787       0.04501303      -0.00125109       0.16941524      -1.11962183      -0.43307814
H        4.34213483     -13.51383160       2.02931660       0.18572317      -0.06026582       0.35442886      -1.30249065       0.83290180       0.06494920
C        7.12661995     -14.26445302       3.90424901      -0.21874607      -0.13467147       0.24561307      -2.25425041      -0.83576897       0.50003959
O        8.03964421     -13.91712555       3.20310517       0.64618441       0.22469953      -0.47174328       1.70007936       1.21665352      -1.28653984
N        7.24947203     -15.30975516       4.73175589      -0.38049825       0.88528690       0.39406836      -0.25320717      -1.34953742       1.99199098
H        6.53796089     -15.72546685       5.39524357       0.05244147       0.03795485       0.35575206       0.74146542       1.00741699      -1.27790204
C        8.42134085     -16.15170151       4.62189090       0.02669349      -0.50378708       0.10241922      -0.09954413      -0.85681320      -0.96979582
H        8.82858133     -16.03696101       3.57956330      -0.37101651      -0.19835103      -0.15161046      -0.37226731       0.06545948       0.88160765
C        9.57128628     -16.00652797       5.62859170      -0.23468421      -0.28534766      -1.36604690      -1.87625818      -1.53125236       0.43080218
H       10.23123027     -16.85173996       5.43473807      -0.11291650      -0.12475779       0.14719241       0.32000036       0.12677188       0.23307863
H       10.03980048     -15.10697892       5.42094878       0.08352839       0.07701799      -0.14514067       1.11881504       1.84063766       0.11034992
H        9.14544238     -16.10186469       6.65446082       0.22492861      -0.08232477       0.24184429       0.53880902       0.30199691      -0.59147411
C        7.93290123     -17.59343875       4.81484210       0.56213633      -0.52837081      -0.21985005      -1.22522136       2.44435317       1.93669919
O        7.09380469     -17.87886201       5.67520190      -0.32206165      -0.83285986      -1.03408664      -0.37270672       0.06865192      -0.09349359
N        8.58478337     -18.44881711       4.10635818       0.08354689      -0.71413652      -0.95240872       2.48264541      -3.20949707      -1.85060310
H        9.48547451     -18.13554166       3.73393193       0.16325385      -0.13855323       0.06473050      -0.48043519       0.00012727      -0.14519956
C        8.68136877     -19.87011338       4.51092092       1.18791792      -0.26659480       1.84741139      -0.31229693       0.02693431       0.16798211
H        7.77450205     -20.06274933       5.10263366       0.51659997      -0.07924676      -0.13545076      -0.02893388      -0.23004498      -0.55527834
C        8.91718812     -20.75465076       3.24646509      -0.75644336       0.32503543      -0.95009830      -0.14434778       0.18614239      -0.43018273
H        8.02705169     -20.77102247       2.56373081       0.06989592       0.07923490      -0.02984440       0.64945729       0.55474062       0.59384150
H        9.79666003     -20.27379943       2.69965484       0.44013812       0.04855037       0.07849135      -1.01497415      -1.03883364       0.60069624
H        9.05798094     -21.84880458       3.44828760      -0.27088014      -0.19283415       0.03997581       0.43937411       1.06641387       0.21184067
C        9.86880763     -19.97546122       5.48094550       0.30798316      -0.64884518       0.83463493       0.53506173      -1.50585543      -0.47288966
O       10.97436659     -19.51467142       5.16967588       0.24813364      -0.59306967       0.84989160      -0.73386735       0.45541682       0.10987715
N        9.72497995     -20.82842058       6.56031662      -0.04283227      -0.55929044      -0.35846078       0.90325740       1.74329877      -1.73921474
H        8.76475730     -21.11492838       6.78497505      -0.06084036       0.12174661      -0.06003209       1.09067745      -0.01339402       0.47013303
C       10.97437721     -20.95597758       7.34313267      -0.08110878       0.89328872       0.56932871      -0.92859259      -1.15221047       0.45703432
H       10.98962408     -20.27106046       8.16618722      -0.26019033       0.15511258       0.13901042       0.13214350       0.69015492       0.38187319
H       10.94424133     -21.93349484       7.76655982       0.40030118       0.15161171      -0.02820462       0.02984658      -0.89798260       0.57742263
H       11.91911443     -20.91446107       6.78597381       0.21453531       0.14952066      -0.03533846      -0.85566227       0.37718878      -0.40041387
