112
Properties=species:S:1:pos:R:3:momenta:R:3:forces:R:3 energy=-496.9159600931486 pbc="F F F"
H      -13.85786737      -8.71042341       3.11211632      -0.18154163       0.21128824      -0.12506949      -0.04902178       0.04176305      -1.38898077
C      -14.16852257      -8.74963712       4.12118992       0.33251672       0.09895962      -0.00033523       0.24659801       1.04992011       1.86692788
H      -15.21980920      -8.98069010       4.23970919      -0.30594337       0.07901129      -0.11734135      -0.17272135       0.23868203      -0.12780688
H      -13.86418711      -7.74317967       4.55683481      -0.01329264      -0.13293633      -0.08780728      -0.66714358      -1.14632443      -0.34224811
C      -13.34469924      -9.85684492       4.69746215       0.16656314      -0.70624872      -0.01009378       1.85655688      -0.16718994       0.08900409
O      -13.62941950     -11.03359556       4.76487641       0.46077734       0.53271722      -0.54646042      -1.53062573      -1.37085252      -0.25763368
N      -12.06037362      -9.51080754       4.97386112       0.53739989       0.31490086      -0.07759419       0.37512576       0.48866960      -0.15254350
H      -11.89015033      -8.55134785       5.22248129      -0.09528056      -0.08058496      -0.03102512       0.62289290       0.15720196      -0.04001409
C      -10.92287180     -10.43854496       5.10703108       0.02516016       0.82642180       0.43955885      -0.50602418       1.94194453       1.65652584
H      -11.03420120     -11.03088676       6.03496133      -0.14997265      -0.03487679       0.09525324      -0.03423969       0.02928883      -0.19772653
C      -10.67046658     -11.29995608       3.97667341       0.89858935       0.63824466      -0.75405312      -0.87109714      -1.33325760      -4.09006367
H      -10.45945012     -10.76291739       2.97073544       0.14274548       0.10559380       0.25522385      -0.41023250      -0.39539641       1.68001209
H       -9.78941926     -11.88066868       4.14175854       0.10517422      -0.07597433       0.03455375       0.56278525      -0.67882217       0.20859631
H      -11.49141453     -12.02685565       3.73471227       0.15745334       0.42224931      -0.11733405       0.58617960       0.69753156       0.49449705
C       -9.71314064      -9.51502090       5.35715455      -0.80313529      -0.85260074       0.83398343      -0.93608269       2.15300480       1.64739371
O       -9.89621699      -8.40743295       5.93152623      -0.45624403       0.44768812       0.33067904       0.13428737      -1.02613786      -0.77502319
N       -8.49373265      -9.90444294       5.01670289      -0.56620289       0.65218604       0.29336061       0.94509116      -2.19477497      -0.38188402
H       -8.33501882     -10.89593410       4.74063413       0.16689209       0.28260140      -0.03108197       0.01612969       1.07836853       0.16492042
C       -7.28455080      -9.23429277       5.47620372       0.68400472       0.97139870       0.45147322       0.10900485      -0.44188611       0.15953117
H       -7.32329103      -8.25249174       5.00008307      -0.19591370       0.23520896      -0.06514870       0.28360997       0.31467481       0.46117000
C       -7.22199922      -9.17865774       7.05613276      -0.12949155      -0.04905248      -0.03819286       1.90458111      -0.35986199      -1.72884290
H       -7.94283300      -8.47725285       7.40307181      -0.05244089       0.32798740       0.08626892      -0.35040969       0.37110764       0.55817535
H       -7.29803072     -10.17094087       7.44528441       0.20979971      -0.22597809       0.06430181      -1.04353695      -0.84085460       0.14785194
H       -6.17588116      -9.02257568       7.37150616      -0.06221262      -0.20403462       0.10880937      -0.35646155       1.00425915      -0.15952606
C       -6.06452500     -10.03477805       4.89723388      -0.44056956       0.28071075       1.06245715      -0.71007788      -1.50918426       0.66764405
O       -6.19045702     -11.26959446       4.63348555       0.23665120      -0.22446682       0.75779207       0.55173447       2.46058248       0.21350515
N       -4.91468716      -9.31541671       4.89386179      -1.27166754       0.22747420      -0.05435368      -0.01379892      -0.26815645      -0.34512943
H       -4.98196855      -8.32726476       5.09781023      -0.22589846      -0.06547287       0.06411951       0.11333308       0.06259607      -0.16193204
C       -3.62733860      -9.78882400       4.34160180      -0.00943945      -0.45378929       0.20264162      -1.32203342      -0.77904520       0.24506976
H       -3.37299962     -10.71422029       4.91930167       0.06500081      -0.24606433       0.06293472       0.10845763       0.66855429      -0.38021334
C       -3.81043791     -10.22209123       2.87894843      -0.04829642      -0.28609849      -0.41622111      -0.05950251      -0.11091588       0.37580448
H       -2.88600073     -10.61135411       2.55535816      -0.00838372      -0.14069842       0.03301281       1.37922974      -0.46803090      -0.52452853
H       -4.46250798     -11.07317252       2.90131591      -0.15076405      -0.12841572       0.01379106      -0.69700891      -0.24718845      -0.21340245
H       -4.11252499      -9.48918103       2.13123735       0.01699188      -0.14247111      -0.26215323      -0.23548362       0.33136636       0.53590163
C       -2.56970985      -8.71015128       4.42661965      -0.06555160       0.42357259       0.22115977      -1.50915656       0.68045715      -0.50381367
O       -2.89484643      -7.51965887       4.21685487      -0.64716609      -1.49708297       1.22158750       0.77125318      -1.11499787       0.41701755
N       -1.33710474      -9.20143875       4.55347390      -0.55659068       0.42830460       0.85520499       1.23820596      -0.40321050       0.57590228
H       -1.17671705     -10.18858817       4.78025611      -0.00540511       0.07523563      -0.19044787      -0.06360750       0.62502291      -0.08554157
C       -0.18115254      -8.31688494       4.44955258      -0.66555086       0.51750924      -0.26825245       0.69251088      -0.46234141      -0.85063710
H       -0.32202642      -7.85932623       3.46755405       0.19339368      -0.13067070      -0.09346234       0.39747378       0.36132915      -0.11406506
C       -0.15109260      -7.24554631       5.53869065      -0.59541557       0.63929322       1.10760944       0.56245609      -1.96652119      -0.60197408
H       -1.01825678      -6.66192861       5.50904877      -0.07280360      -0.09087799      -0.22074336      -1.16706898       0.97858748      -0.16844812
H       -0.11556987      -7.80422859       6.44935401       0.29524848       0.00260751       0.16420487       0.23532634      -0.01053389       0.95817771
H        0.74037194      -6.70706112       5.35985089      -0.29411031       0.14817848       0.16288052       0.88256107       0.97116358       0.24146378
C        1.18904661      -9.13624575       4.45127598      -0.53264989       0.46498878      -0.90513058       0.71531159      -1.35542257       0.48904384
O        1.34423010     -10.23529345       5.01531480      -0.57493573      -0.10801440      -0.30511821      -1.15572970       0.82639220      -0.02253169
N        2.27698462      -8.54833828       3.87568905       0.53964418      -0.71717062       0.17786761      -1.62345500       0.02026761      -0.50266970
H        2.07643673      -7.80601811       3.21782992       0.16133981      -0.11656529      -0.22888522       0.39137470       0.37914851       0.23227951
C        3.66966238      -8.94096139       3.94641961       0.66024229       0.00977479      -0.08063679       0.15657310      -0.17027239      -0.37511836
H        3.88354209      -9.58066701       4.83073255      -0.01266299       0.09230298       0.06958218      -0.42654331       0.86052445      -0.10906678
C        4.21140461      -9.79402627       2.77254372      -0.79895009      -0.56161580      -0.32076138      -0.19920903      -0.83783223      -0.15477723
H        5.28574617     -10.03909981       2.92402560       0.32943332      -0.28621186      -0.14489514      -0.67857344       0.20015721       0.07946625
H        3.64211506     -10.73303477       2.82901662      -0.10526199       0.17941427       0.00128186       0.21707543       0.09480534      -0.36367731
H        4.12589055      -9.36283004       1.75892071      -0.18260461      -0.09122791       0.31407367      -0.22069602       0.08900775       0.56101606
C        4.40889709      -7.61368108       3.86430341       0.57901632       0.46453819      -0.30929939       0.07842584       0.25205692       0.37951855
O        3.86924320      -6.59311376       3.45074810      -0.27136772      -0.12119571      -0.46318323      -0.18100558       0.39595938      -0.42581815
N        5.70199325      -7.68376687       4.17272332      -0.97873052      -0.59535121      -0.27296818      -0.37852671      -0.51185114       0.10628999
H        6.01483359      -8.48717211       4.68403313      -0.34399890       0.06315078      -0.10611111       0.45520535      -0.29850957       0.22193039
C        6.63098258      -6.61391268       4.06542952      -1.26162303      -0.77962044      -0.14491438      -0.28306092       1.55469495      -0.46280085
H        6.55279587      -6.11811174       3.08161635       0.15644773       0.03886222      -0.19596411       0.01727910      -0.50237560       0.02555369
C        6.37813540      -5.47911742       5.08158123      -0.73422026       0.48236184      -0.15757626      -0.94549509      -0.37100712      -0.32883408
H        5.32039532      -5.15282555       5.06221786      -0.03643179      -0.00613004       0.26279968       0.53162114      -0.17629136      -0.40390066
H        6.54689218      -5.82851456       6.07723514       0.36535365      -0.09157258       0.22554101       0.46967821      -0.17970840       0.73516897
H        7.01509926      -4.65877926       4.81620654      -0.05471334       0.08626213      -0.14381255       0.36877852       0.58333960       0.15709663
C        7.95981686      -7.24688408       4.29084107       1.47125880      -0.36643940      -0.88488635       3.13637695      -1.16502047       0.74992641
O        8.07401863      -8.13527417       5.17037385       0.79220046       0.14107102      -0.29614618      -0.28726194       0.79405660      -0.93897402
N        9.08522339      -6.84670538       3.57758741      -0.38067631       0.18737169      -0.57827038      -2.14983180      -0.70716821       0.98348165
H        9.02582890      -6.12380153       2.89318535       0.35671196       0.06925230      -0.19387689      -0.15193063       0.65103612      -0.37174588
C       10.41948979      -7.37507443       3.74541178       0.86087950      -0.14134156       0.15942639       0.08600781       0.49124811      -0.48040763
H       10.57254942      -7.65578193       4.79994077      -0.13068203       0.17515421       0.31803913      -0.07546589       0.03759569      -0.30516256
C       10.62424061      -8.58692460       2.81164068      -0.46316799      -0.71580830      -1.00259641       0.77769342       0.92677008       0.82437220
H        9.79288396      -9.19085664       2.93273668      -0.08965459      -0.00192194      -0.22636551      -1.57779016      -1.60895932       0.75953882
H       10.54105368      -8.34159192       1.78890204       0.05911587       0.20575039       0.31051324       0.36521264       0.83779552      -1.31028452
H       11.52574798      -9.15787067       2.97761646       0.04901190       0.10989052       0.21499473       0.32323595      -0.02034468       0.16844565
C       11.33819573      -6.16202828       3.37435954      -0.31136785       0.28389273       0.53125899       0.13119264      -1.99253144       1.11279343
O       10.87783436      -5.13548696       2.90144866      -0.78450308      -1.10340733      -0.37765974       0.28812374       0.51711550      -0.39923629
N       12.64823904      -6.39552578       3.64983166       0.17670909       0.12923140      -0.08840529       0.26289389      -0.19526080       0.80924643
H       13.01523843      -7.17865296       4.25575733      -0.16709161      -0.16978835      -0.16327936      -0.96944063       0.94772105      -0.87369191
C       13.56711511      -5.27457203       3.63494647       1.06438211      -0.08566357      -0.28114094       0.40949618       0.01343436       0.86595440
H       13.42500126      -4.80473285       2.66758368       0.16491499      -0.10883744       0.07299308       0.65041753       0.26736992      -0.20147861
C       13.29286974      -4.24763728       4.78880353       1.00888858       0.88243119      -0.48524650      -1.54873555      -1.12192385      -1.07746266
H       14.18142659      -3.66064205       4.91611651      -0.18510470       0.07882257       0.03674007       0.23330387       0.48393108       0.48897674
H       12.41423289      -3.65088442       4.47560370       0.11666560      -0.15678994      -0.00529745       0.59141430      -0.01963742       0.28773030
H       12.97558607      -4.85589037       5.65436779      -0.00673763      -0.14066787       0.18214322       0.57930815       0.54384939      -0.02356941
C       14.94534060      -5.89047630       3.96540486      -0.16603295      -0.51434325      -0.17208271       0.14408104       2.45833639      -3.74249042
O       15.04056966      -6.81977003       4.70184444       0.97482526      -0.01285729      -0.35805634       0.06512822      -2.46025324       2.46100532
N       16.04203025      -5.40869980       3.28702621       0.51916393      -0.01893988       0.28529476      -0.82531495       0.23339091       0.56004527
H       16.06872815      -4.59502496       2.68658467      -0.27381111      -0.04465094       0.42304272      -0.50080779       0.21521615      -0.04313331
C       17.35247797      -5.81428475       3.66560855      -0.48010714      -0.16333028       0.10789485       1.18371309       0.68562212       0.32617108
H       17.43063629      -5.99112452       4.75314248       0.11855293       0.22880408      -0.24743340      -0.15838910       0.37722940      -0.17681244
C       17.80859725      -7.06903280       2.98405313      -0.30726717      -0.23611220       0.06979967       1.01796483       0.25055612      -0.51182717
H       17.59676435      -6.88865599       1.90486239      -0.03562094      -0.08241429       0.04525690       0.48247972      -0.73321174       0.56172819
H       18.91373069      -7.18832333       3.22451343       0.02388916       0.00820135      -0.01448521      -1.34515822      -0.31810950      -0.65225153
H       17.21125265      -7.84549790       3.41694769       0.14108382       0.08072040      -0.15777188      -0.12977714      -0.90769031      -0.21031889
C       18.33461714      -4.71631280       3.22534588       0.64732981      -0.75961810       0.08197654       0.04575781       1.77882900       0.34848326
O       18.04308881      -3.77900884       2.44201978       0.14157304      -0.06341232      -1.13906683      -0.14214858      -1.56405536       0.58591342
N       19.56423303      -4.76868422       3.81183699      -0.30016420       0.03202517       0.27518662      -1.55614168      -0.08621679      -0.54613636
H       19.72067394      -5.46527869       4.50999554       0.05588943       0.04669829      -0.19274292       0.20846355      -0.30479186       0.37819396
C       20.48860497      -3.68254625       3.69296776      -0.29238671       0.16986545       0.71671994       2.30724747      -0.93934411       0.56142063
H       20.04852277      -2.95379400       3.05237218       0.09860404      -0.20039792       0.16107408      -0.59287119       0.79611836      -0.10576961
C       20.95075207      -3.19784943       5.06972092      -0.42066437      -0.30244733      -0.20387643      -0.57436035       0.01248853       0.31007986
H       20.06223383      -2.93713739       5.66088544       0.36181276      -0.11052676       0.19834150       0.14758337       0.00632113      -0.03921077
H       21.53376094      -3.96596906       5.63218831       0.16251007       0.14621951       0.20730678      -0.38524679       0.51316658      -0.64758834
H       21.55642383      -2.29760771       4.96693093       0.00587670       0.10633184       0.02064074       0.12117077      -0.11905553       0.03287613
C       21.74639237      -4.20759482       2.93565532      -0.88868099      -0.06866920      -0.52856101      -0.43310245       0.51442235       0.85986258
O       22.82189694      -4.26958644       3.51422954       0.91145630       1.32075570       0.66493959       0.60346897      -0.21139641      -0.39637050
N       21.51083171      -4.52238385       1.65626054       0.64605113       0.10407843      -0.59919219      -3.00040307      -0.88826521      -1.70710411
H       20.46490520      -4.59052642       1.31839466       0.03832579      -0.24003394      -0.17203300       2.80659694       0.45882406       1.11384104
C       22.49091604      -5.00925632       0.71784818       0.85372805      -0.19470462       0.42861135       1.88291623       2.03649571       0.69091195
H       22.44172198      -4.38151269      -0.19032378      -0.01647232       0.17291447       0.21206697       0.50740912      -0.00580134       0.40910965
H       23.51384943      -5.01911365       1.22596845       0.06972611       0.03815951      -0.00992192      -1.31707076       0.51358783      -0.75055417
H       22.36771573      -5.97893311       0.37944480       0.28065273      -0.24244615      -0.03344702      -0.81648736      -2.25716544      -0.34980975
