112
Properties=species:S:1:pos:R:3:momenta:R:3:forces:R:3 energy=-497.20947473295456 pbc="F F F"
H        6.79985148      -2.07706734      -4.32483780      -0.11826041      -0.01546834      -0.15216092      -0.80131601      -0.59216063      -0.96249150
C        7.59731440      -2.32128276      -3.66733555      -1.03426361      -0.76457746      -0.17330197       1.47755002      -1.68688292       0.67052599
H        8.03892002      -1.35716929      -3.50525469      -0.03782288       0.08050812      -0.31634631       0.91830776       0.30426372       0.01820960
H        8.32754056      -3.13907291      -3.98444132       0.03134240       0.13895572       0.21660604      -0.99625026       1.45783132      -0.34653404
C        7.08046601      -2.83363673      -2.35535377       0.17002750       0.40414015       1.25765802      -0.38777702       3.95624242       0.29404877
O        6.84676360      -3.96103598      -2.05450510       0.48456355       0.03754271       0.74700749      -0.33610632      -3.20582286       0.42231778
N        6.76244638      -1.80784477      -1.47272066      -0.06197062       0.85258053       0.03038956       1.27333406       2.06516525      -0.61502187
H        7.18102810      -0.84483234      -1.67634212      -0.16405798      -0.08037824      -0.10548560      -0.85228869      -1.96787958       0.32328098
C        6.47933622      -2.04336418      -0.06223929      -0.07708792       0.35301666       0.00940038      -0.80261854      -3.46397120      -2.76441787
H        7.25503712      -2.65769065       0.35439297       0.25931324      -0.01561132       0.08353480       0.50175510      -0.60906363       0.27376918
C        6.39209749      -0.83341886       0.64445171       0.26103187      -0.04471785      -0.43278885       0.23533962       4.20755467       1.50296184
H        5.66466116      -0.10481273       0.23967899       0.08507893      -0.04716467       0.31096203      -0.03972442      -0.47955666      -0.00363484
H        6.05718119      -1.08243101       1.64874458       0.22848132      -0.00448819      -0.06024060       0.43052942       0.51519334       0.40488511
H        7.37676148      -0.25119387       0.58553479      -0.31568806      -0.15749258      -0.21545399      -1.05313031      -0.87483064       0.65161770
C        5.16823015      -2.91328780       0.06422348      -0.31211015       0.24738874      -0.81820304      -0.11861806       3.71665781      -2.88100817
O        5.00904193      -3.68486069       0.95194808      -0.18128928       0.28090415      -0.34550507      -0.47681745      -2.14315447       1.72749522
N        4.16131813      -2.51948278      -0.84980259       0.19466723      -0.56430076      -0.69338247       1.10494263      -1.01200584       0.45601243
H        4.40364034      -1.84646471      -1.57627114       0.13982807       0.06566891       0.04368601      -0.01504194      -0.46303412       0.28577009
C        2.96190807      -3.33951376      -0.95458012       0.02225920      -0.12810852      -0.33451289      -0.30783689       0.13622025       2.09173309
H        2.47999398      -3.34289121       0.06799909      -0.06360917       0.02733487       0.39414099       0.40230471       0.16303835      -0.82274261
C        1.93502830      -2.88631335      -1.93644223       0.24384225       0.54559682      -1.04151474      -1.10887323      -1.12370055      -0.66950517
H        1.53623292      -1.89469932      -1.83995087       0.19865188      -0.16133324       0.31572493       0.03763441       0.61567196       0.50557374
H        2.21193780      -3.00697727      -2.98742238       0.17815755       0.29994045      -0.03788608       0.24728121      -0.13857610       0.05087129
H        1.10958455      -3.60688044      -1.73539517       0.01530404       0.17309448      -0.13700653       0.14550390       0.61147785      -0.48926440
C        3.19036691      -4.84240746      -1.14045093      -0.02880020       0.29106436       0.85939119       0.93265231      -1.09655493      -0.57500449
O        2.58748509      -5.70774894      -0.50828288      -0.32277732      -0.10523391      -0.84787563      -0.41080898       0.37379911       0.45926347
N        4.10729041      -5.23366531      -2.07454960      -0.53368620       1.26136891       0.41312621      -0.57069596       0.48233926       0.88984930
H        4.62890359      -4.52283753      -2.51935934       0.18645791       0.54995719       0.10038403       0.77227058       0.58012262      -0.47988237
C        4.48684623      -6.60310929      -2.25679079      -0.20786096      -0.63237646      -0.23961737       1.33490959      -0.53572380      -2.16476763
H        3.61562505      -7.19589935      -2.57374079       0.06741224      -0.23762655      -0.14844001       0.20478507       0.05018842       0.37517690
C        5.58341177      -6.72911071      -3.49011538       0.76556553      -0.47846210      -0.23095632      -2.32716223       0.12877663       0.19463862
H        6.47724263      -6.16605932      -3.27293971      -0.33684908       0.07698567      -0.18090529       0.32874715      -0.08968755       0.17243446
H        5.69467920      -7.79480511      -3.56582086      -0.05485395      -0.01848454      -0.17705194       0.78397686      -0.50943885       0.14715956
H        5.20241244      -6.46106322      -4.52291852      -0.08747798      -0.04979502       0.18705450      -0.05260686       0.24348132       1.34716067
C        5.13888460      -7.31976935      -1.06159172      -0.59404993       0.30008563      -0.95796915       0.69685692      -0.39689811       1.48750372
O        5.12013252      -8.54010900      -0.91544349       0.34198641       0.31601917       0.44478178      -0.42405808      -0.09763847      -0.68665247
N        5.81648103      -6.55401703      -0.14207899       0.12927863      -0.39463299       1.69184732      -0.57672340       2.81746662      -1.71297634
H        5.76622987      -5.50642122      -0.35327252      -0.20017470       0.10345626       0.16484502       0.36981244      -1.97188315       0.64455548
C        6.58294627      -6.98627517       1.01000435       0.22820386      -0.56822810       0.11247179      -0.19030357      -1.05373069       0.06053411
H        6.91850606      -8.03964902       0.84192389      -0.14978504       0.05393645       0.04581830      -0.19424044       0.64838489      -0.17398671
C        7.83252303      -6.05087533       1.13142415      -0.12818896      -0.46132783       0.42817783      -0.88789031      -1.05310599      -2.13695622
H        8.28872972      -6.00595310       2.08173795      -0.17973267      -0.07803853       0.21156368       0.50433705      -0.27447684       1.04965885
H        8.55209725      -6.35022563       0.29854485      -0.00274464      -0.10649205      -0.09681996      -0.77075014       0.38700528       1.26160069
H        7.43555498      -5.08618866       0.87559949       0.17438338       0.02770042      -0.11026645       0.15576038       0.78225956       0.03400331
C        5.64173702      -7.19207611       2.25742529       0.13153611       0.57150979      -0.34313466      -0.53274365       1.94848745      -3.50906620
O        6.07552985      -7.62929799       3.27836047      -0.64453657      -0.50431991       0.48094183       1.49782860      -1.32999930       3.30530779
N        4.33164123      -6.90837731       2.07627479      -0.70294581      -0.72091776      -0.22686016       0.03817436       0.04763051       0.11373000
H        4.04155335      -6.42974499       1.22191487       0.07482065       0.42488262       0.22659657       0.00120211      -0.21436580       0.27431126
C        3.43657662      -6.93777715       3.22998635      -0.44609651       0.07232812       0.04751688      -0.34374047      -1.33892476      -0.63561294
H        3.84752063      -6.31583195       4.00657732      -0.05709567       0.07968070      -0.18895669       0.09178552       0.51076452       0.36670634
C        2.03543916      -6.47010115       2.79726748      -0.39472880      -0.70834105       0.68815445       0.72776352       0.36157890       1.57744317
H        1.30243927      -6.73666719       3.55126333      -0.24481477      -0.28820715       0.14785955      -0.06871580      -0.02993498       0.14886974
H        2.03588716      -5.39608816       2.69005604       0.01369436       0.16761967      -0.24577442       0.02500783       0.42998494       0.00993118
H        1.74599284      -6.86119368       1.86970692      -0.04087290       0.33579437      -0.31123719      -0.30303827      -0.83357634      -1.36473907
C        3.37138069      -8.34272818       3.95654139      -0.34773758      -0.20672788       0.11806959       0.34545918       0.29469872      -2.51709845
O        2.97569570      -8.36068193       5.09525525       1.88687466      -1.18013044       0.40410662      -0.43769169      -0.28876743       1.73493074
N        3.69773983      -9.48571854       3.26103128      -0.03383115       0.20585420      -0.72289744      -0.76157491       1.81297117       1.79265536
H        4.03098125      -9.36554747       2.34797116      -0.08892847      -0.28135882       0.22219566       0.52023968      -0.10131267      -1.44796287
C        3.65696773     -10.76871732       3.89872181      -1.06005631       0.57846278      -0.15216874       0.87926387       0.07892348      -1.27703398
H        2.83699555     -10.82660797       4.55839491       0.14186172      -0.15557690       0.39520456      -1.42854138       0.12236772       0.61637753
C        3.52756809     -11.80347032       2.79775432      -0.13535436       0.68718241      -0.77726145       2.00177997      -1.12664560      -0.67234358
H        4.48586973     -11.84922915       2.15161833      -0.10015449       0.04965773       0.17399187      -1.33265433       0.19439511       0.97472637
H        3.43071981     -12.79381527       3.24704391       0.52176783       0.06024535      -0.21683918      -0.06932985       0.00227068      -0.08468432
H        2.70313674     -11.63168183       2.11269602      -0.12548123      -0.21457453       0.14313650      -0.23351809       0.23666325       0.18853211
C        4.79543610     -11.02041503       4.86892478       0.25816052       0.34467266      -0.27744061       1.76273566      -1.24660665       1.76754236
O        4.67788690     -11.91770798       5.74413672      -0.22470340      -1.38409249      -0.60193213      -0.04154998       1.38565893      -1.34025903
N        5.95958800     -10.27133794       4.77689554      -0.01551079      -0.20865099      -0.56414579      -0.78270316       1.85036111      -0.62846193
H        5.90843933      -9.37958065       4.20327806      -0.10147790      -0.06520079      -0.00337785       0.00790881      -1.46728829       0.53040075
C        6.97214136     -10.21825868       5.86232450      -0.27453251       0.31241752       1.21144461      -0.52754838      -0.34975192      -0.50564900
H        7.07297312     -11.26282613       6.14880735      -0.12357495       0.15788509      -0.02800857       0.65085960      -0.04880366       0.15366225
C        8.27098751      -9.50463797       5.37400842       0.04057723      -0.07973136      -0.66723867      -1.22822480      -1.69537292       0.47688133
H        8.70950351     -10.22614849       4.71973461       0.15496462      -0.25839597       0.07852225       0.88394337      -0.34929877      -0.40793990
H        8.06715693      -8.63269744       4.78344110      -0.03687448      -0.01959772      -0.03991274      -0.21680857       0.69442247       0.12014525
H        8.85172550      -9.34626769       6.27269022      -0.04140791      -0.03558712      -0.00707439       0.49183094       0.32380499      -0.15756395
C        6.52050099      -9.48668822       7.11425847      -0.64316429      -0.27586205       0.15915281      -1.13641133       2.14839806      -1.09889560
O        6.77246359      -9.77627685       8.26779834       0.22870364       0.00380117      -0.23354281       0.14945151      -0.67108261       0.56089955
N        5.87504467      -8.29893476       6.79574291       0.83793638       0.66447946      -0.52023036      -0.34523155      -0.31444155      -0.76589207
H        5.63638975      -8.09514464       5.82486231       0.05933393       0.05268074       0.13332253       0.24582368      -0.30152403       0.32632476
C        5.15907694      -7.50783495       7.76481471       0.98409828       0.75747152      -0.01030744       1.50931045       2.73336033       0.21528096
H        5.89940475      -7.09854033       8.49622685       0.11970987      -0.02100440       0.03930730      -0.59465350      -0.48942726      -0.23031772
C        4.44677964      -6.25267650       7.10736191       0.46137699      -0.26541160       0.22671157       0.00743017      -0.45650670       1.75458806
H        5.12792143      -5.51257782       6.78835390       0.42027532      -0.02522796      -0.17863992       1.16944860       0.74467174      -0.23798214
H        3.98545920      -6.63697070       6.26111061       0.28852714      -0.30954646       0.09595956      -1.28704841      -0.52338214      -1.61966032
H        3.68075844      -5.72536703       7.73884740      -0.07213854       0.00725495       0.08323384       0.81014889      -0.97978212      -0.22919962
C        4.14248720      -8.23557757       8.49635128       0.00138459       0.55715951       0.24511877      -1.58403275       0.35676753       2.82662095
O        3.81736962      -7.86565756       9.67312434       0.37149359      -0.19433487       0.06447199       0.59278265      -0.55421626      -2.21083443
N        3.48311279      -9.23979462       7.89149355      -1.24654516       0.15039329      -0.12427548       0.65215843      -1.17447820      -0.04260637
H        3.73159951      -9.69094545       6.97627238       0.16571528       0.19104976      -0.03537341      -0.11170905       1.06200511       1.33168014
C        2.59742730      -9.98552130       8.75092956      -0.25784984      -0.60999884      -0.36743336      -1.26863708      -1.37118971      -0.32829506
H        1.86421981      -9.26792746       9.14187324      -0.00385138      -0.15173287      -0.01521429      -0.03478032      -0.31868202       0.07791961
C        1.94979424     -11.10075978       7.86563685       0.26612255       0.20984216      -0.14690951      -0.61897091       0.60101601       2.10500137
H        1.55237087     -10.67340317       6.97394591       0.27542139       0.06111306       0.06385241      -0.82721773       0.39404525      -0.53166164
H        2.76060833     -11.69650138       7.55717812      -0.06429413       0.13148073      -0.22337522       0.95958508      -1.24480547      -0.36973766
H        1.22597837     -11.70320137       8.48380013       0.24348904      -0.34234162       0.22033421       0.68421616       0.68122476      -0.88453404
C        3.19351755     -10.74214582       9.98702545       0.21947385       0.66113263       0.08008028       0.67904818       0.01957090      -0.59244113
O        2.51045156     -11.51534305      10.65959261      -0.11191516       0.33654520       0.65325102      -0.50466782       0.53549374      -0.04524091
N        4.51257653     -10.59760657      10.23478921      -0.18563464      -0.50633265       0.57443287       0.70423322       0.50893625       0.42155637
H        5.16223566     -10.04677185       9.64070164       0.07671237      -0.14379707      -0.09752104      -0.89873946      -0.47013727       0.51603377
C        5.14624808     -11.19355748      11.41322996      -0.14199683      -0.63378463       0.67659112      -1.81134620      -1.93897082       0.06859921
H        4.64224113     -12.26826600      11.61300005       0.21447148      -0.24162058       0.10380041       0.86011940       2.21797870      -0.68647859
C        6.59879411     -11.37152615      11.17966023       0.41857176       0.31540858       0.41591764       0.78962421      -0.12832709       1.09353556
H        6.77891668     -12.22835731      11.85515053      -0.10398359       0.19808044      -0.10684278       1.23242830       0.90821826      -0.06790144
H        6.78360445     -11.69636982      10.19681504       0.24073120      -0.01519313      -0.28215945       0.15228979      -0.53801312      -1.39345325
H        7.18943172     -10.42071062      11.30846537       0.13916090       0.04776383       0.02754924      -0.43401681      -1.14377085       0.42391626
C        4.96703673     -10.51346937      12.77693239      -0.35471594       0.44438194      -0.70914241      -0.89229686       1.35937676      -1.57574243
O        5.67827496     -10.76340615      13.72483552       0.41432992      -0.11798550      -0.44865643       0.66366197      -0.92312375       0.78448341
N        4.02926643      -9.52538536      12.84858423      -0.05463225       0.10928886       0.62176110      -0.04123534      -0.53921159      -0.11709321
H        3.36030313      -9.35120392      12.11315934       0.03659868      -0.06506429      -0.10042211       0.32869843      -0.29727272      -0.33424389
C        3.56246141      -9.19582260      14.14607530      -0.68619710      -0.17595584       0.56942368       0.52590601       0.70592612       1.55315217
H        3.22714047      -8.18002811      14.18081152       0.05931891       0.13949288      -0.31466815      -0.79487043       0.58277286      -0.21015018
H        2.82784094      -9.89482975      14.52892132       0.24931752      -0.05162027      -0.00071064      -0.46697250      -0.08187979       0.00326403
H        4.36969632      -9.18099625      14.88794165      -0.06159215      -0.00169530      -0.31720853       0.16212114      -0.37723522      -0.41199800
