112
Properties=species:S:1:pos:R:3:momenta:R:3:forces:R:3 energy=-497.1398714408284 pbc="F F F"
H       -7.47395262       1.36211377       3.44765741       0.17397121      -0.00077718       0.05551782      -0.76532942      -0.01143513       0.50986533
C       -6.56188903       0.97726054       3.05212626       0.56557778       0.36854220      -0.35605162       0.81040924      -0.03624038      -1.37554410
H       -5.73979123       1.23153237       3.69824186      -0.06587904       0.36470775       0.13156040       0.20787759      -0.19880128       0.57121759
H       -6.36498312       1.53297519       2.12381552       0.10201550      -0.20010024       0.02376054      -0.14342370       0.01144688       0.12581072
C       -6.59851222      -0.49516576       2.72323717      -0.68641169      -0.73877996      -0.07817976       0.21224065      -2.28470107       1.28426922
O       -6.50244693      -1.43315129       3.58344245      -0.34819810       0.14507551      -0.06297921      -0.20316890       2.05511673      -1.57538014
N       -6.70601260      -0.79126610       1.39469486      -0.17602523       0.35837542      -1.09056586      -0.23262526       0.78637131       1.02391566
H       -6.79338598      -0.00918801       0.76672096       0.06888992       0.14883517       0.10031603       0.00749109      -0.02562351      -0.16933867
C       -6.93825862      -2.10433945       0.82713670      -0.34334528       0.50479660       0.28312474       0.47906597      -0.44877069       0.29891764
H       -7.42439859      -2.75923876       1.54993780      -0.17790586       0.15960212      -0.10735280      -0.44888625       0.30657960       0.26378572
C       -7.72052651      -1.89385925      -0.43211019       0.18163190      -0.68855607      -0.24354948      -0.09351812       1.48903133      -0.47103523
H       -7.08016342      -1.27909105      -1.15297185      -0.10975233      -0.04200123      -0.27213011      -1.11236112      -0.71926359       0.81064042
H       -8.02434011      -2.78759140      -0.91249223      -0.01305285      -0.08600809       0.10275831       0.14064897      -1.08355024      -0.53438326
H       -8.68890364      -1.40601438      -0.15992704      -0.19735994      -0.12592354       0.12386721       0.83340511       0.11298270      -0.33514193
C       -5.56776275      -2.74738908       0.62035132      -0.20337094       0.66073545       0.24844828       0.84424145       0.06939704       0.09775670
O       -5.03251828      -2.86885545      -0.47713231       0.26006145       1.30810413       0.27912053      -0.05870302      -0.11139944      -0.97259093
N       -4.90031852      -3.07985472       1.74480236      -1.48264477      -0.35638927      -0.51554934       0.57525569       0.31610808       1.09339621
H       -5.28418125      -2.77455042       2.67323222       0.01425182       0.13380141      -0.02819660       0.11578608      -0.34427057      -1.15556003
C       -3.40217741      -3.21915913       1.74943811      -0.03011560      -0.27368418       0.39422113      -1.06507537      -1.32146192       1.86372849
H       -2.94136307      -2.70152301       0.94974720       0.07533221      -0.02372092      -0.04755109       0.08377494       1.16500248      -0.87011806
C       -2.95648958      -2.74917114       3.12951494       0.45552476       0.66020849      -0.31575957       0.62349558       0.38638825       1.02322389
H       -3.24107913      -1.66850653       3.33306412      -0.03340228       0.23178599       0.08515044       0.52751419      -1.18428589      -0.41343502
H       -3.37307772      -3.35384117       3.97286117       0.00543861      -0.03433793       0.10350721      -0.12687722       0.26057164      -0.91730929
H       -1.86570118      -2.93272721       3.25985034      -0.05867597       0.16601571       0.01873904      -0.57589484       0.54537858      -0.27614994
C       -2.96087713      -4.69115265       1.52061101       0.70787565      -0.81238441      -0.55456102       0.05115311      -1.62430083       1.59510166
O       -2.57182376      -5.45516133       2.44734621      -0.60258284       0.84769987      -0.33063522      -0.67796561       1.54361826      -1.91696954
N       -3.07861616      -5.08878336       0.22105344       0.07030824       1.21713813      -0.52303721      -0.59045846       0.59056679       0.36105424
H       -3.55903156      -4.44300106      -0.39416504      -0.02581001      -0.19525339      -0.21170666      -0.10398741       0.19969571      -0.03750444
C       -3.00973455      -6.46424804      -0.19871178       0.22917814      -0.98637021      -0.38170585       0.29697544      -0.48929234       0.42717199
H       -3.37953070      -7.12397709       0.61206596      -0.07216404      -0.03802503       0.01732705       0.20848107       0.29449770      -0.33027010
C       -3.73455120      -6.68728759      -1.49293129      -0.12667617       0.72617519       0.03175515      -0.58797137       0.67722848      -1.38143090
H       -3.56589623      -7.64538476      -1.98478304      -0.06721806       0.24646736       0.14802524       0.14117033      -0.17958071       0.57910846
H       -4.80167715      -6.52703617      -1.40869349       0.27208416      -0.16701855      -0.44856083      -0.37329206      -0.02444653       0.17940050
H       -3.38532823      -5.95172404      -2.23862003       0.00654044      -0.01315716       0.15843814      -0.02586313      -0.02735073       0.23270358
C       -1.59331279      -6.86299652      -0.48275637      -0.57960317       0.29612892      -0.34474960       0.32149442      -0.16922047       0.89053161
O       -1.30110124      -8.05543991      -0.59032929       0.45878414      -0.70516350      -0.43207727      -0.32842665      -0.02797992      -0.22050505
N       -0.65868345      -5.88123158      -0.59052846       0.51805763      -0.59439938       0.41930337       0.02329601       0.30195167       0.13974920
H       -0.73231461      -4.90198273      -0.31206891      -0.06621592       0.04076546      -0.16509841      -0.70957166      -0.58223721      -0.02079230
C        0.68246962      -6.35169621      -0.64630434       1.15220089      -0.14610913       0.24931625       1.48087620       0.16931810       0.86662927
H        0.54918763      -7.44253349      -0.46787954       0.10732103       0.16822534      -0.14635692       0.61436417       0.56224213      -0.62240113
C        1.31538152      -6.00323064      -2.00874848       0.40894673       0.41825291       0.80432465       0.28411376       0.05213056       0.24134531
H        2.30898848      -6.44901481      -2.11766667       0.03999592       0.10815741       0.04430039      -0.04794381      -0.08842209       0.09347663
H        0.66190420      -6.45404573      -2.78272699       0.05956484       0.00865642       0.10700370       0.34674489       0.54478018       0.23407064
H        1.47023715      -4.90111712      -2.14766362       0.07066899       0.14890394      -0.16837691      -0.50427252      -0.85720048       0.06583283
C        1.44404312      -5.81406569       0.66973981       0.40969980      -0.84471566       0.18714829      -0.21451255      -1.80096109      -1.20189489
O        1.33615627      -4.68340016       1.13348900       0.12832332       0.33321512      -0.14484982      -0.05478365      -0.19982861      -0.25369610
N        2.15411892      -6.84021464       1.25297176       0.16878424       0.84112295       0.96955623      -0.47956992       2.35619802       0.16247902
H        2.19360844      -7.77059803       0.87338091       0.03680810      -0.11190828      -0.03947454       0.01490558      -0.11746518      -0.01211340
C        2.76107606      -6.59275668       2.56019158       0.28962468       0.70735241      -0.59313976       0.65444304       0.49626227      -0.97077739
H        3.08597421      -5.52066462       2.57810973       0.10483582       0.08102750      -0.04374403      -0.26148867      -0.75952146      -0.03096919
C        1.74811538      -6.88762743       3.65162018       0.10006050      -0.28020774      -0.09921181      -0.65461657      -1.25835843      -0.82274669
H        2.29405345      -6.95648517       4.56647095      -0.21558233      -0.07289616       0.15369937       0.05474261      -0.07713660       1.04267216
H        0.90724781      -6.15484461       3.74002545      -0.14488535       0.12423439       0.20075780       0.81479089      -0.55870306      -0.33064253
H        1.35430367      -7.91805729       3.36758534      -0.16120944      -0.13500095      -0.10362359       0.15697115       1.19561824       0.77667608
C        4.01762394      -7.52827214       2.55483093      -0.17120232      -0.13776186      -0.37728857      -1.87671864       0.80395901      -0.06486505
O        3.91496437      -8.61703302       2.00880964      -0.09437509       0.61675542      -0.21055383       0.68658920      -0.75087999      -0.05821323
N        5.10136621      -6.99669801       3.12256049       1.53916144      -0.30477053      -0.39096911      -1.48135089       2.60035149       0.59965409
H        4.88458880      -6.14051839       3.70593868      -0.18470480       0.07160226       0.01417780       0.95597899      -1.19198378      -1.02324380
C        6.29190083      -7.69856521       3.36417434      -0.03717215      -0.50425616       0.01890177      -0.22576991      -1.58481956      -0.46314198
H        5.94653460      -8.72035732       3.60057862       0.07418871      -0.05555368      -0.09317712       0.32731753      -0.06088685      -0.05755863
C        7.26511161      -7.83842032       2.17004036       0.13823900      -0.34293571       0.85702342       0.67949363       1.26448046       0.05546065
H        7.86557821      -6.90716399       1.94776351      -0.22725994      -0.04228222       0.44861882      -0.91089709      -0.74219473       0.24873311
H        7.99527801      -8.62214249       2.31409611       0.00277118       0.09373922      -0.09641756       0.21419178      -0.27549006       0.54858253
H        6.72986520      -8.16432504       1.29818634       0.05259011       0.01039997      -0.05434945      -0.51592619       0.18431595      -0.49115981
C        6.92318486      -7.12132620       4.58141435       1.06003102       0.13648035      -0.06625462       1.35020803      -0.58241749      -0.67118772
O        6.93840406      -5.93869909       4.85863133      -0.40134273      -0.08077751       0.63407121      -0.48713467       1.44469811       0.49827890
N        7.65948498      -8.05361754       5.16696303       0.82221950      -0.23975828       0.36872009       0.56165555      -0.37226703       1.12859501
H        7.54769144      -8.98729754       4.78983397       0.30931739       0.04293485       0.13047205       0.47249098      -0.11181335       0.67596690
C        8.66997775      -7.76337764       6.22176524      -0.93145644      -0.32915496       0.19429764      -1.87705900       0.64182549      -0.08812716
H        9.00401264      -6.74259235       5.90277235      -0.09315537      -0.10935535      -0.04350588       0.87134311      -1.04539922       0.38707397
C        7.92415380      -7.57795084       7.59999667       0.35120472       0.00493105      -0.41392691       1.14804372       0.85713033      -0.52358859
H        8.63093799      -7.31806018       8.42863592      -0.13133840      -0.25555722       0.07446526      -0.46505317       0.26949576      -0.78388755
H        7.12543704      -6.81149547       7.44797114       0.12423449       0.15608916      -0.11844596       0.66331375      -0.69229397       0.38750108
H        7.56531330      -8.53787660       7.86808602       0.27448271      -0.10376318       0.13347453      -0.96185662      -0.87840583       0.24822741
C        9.49524241      -9.05749885       6.23203601       0.48697287      -0.32731284      -0.09881991       0.20441224       0.52087791      -1.24383193
O        8.93407009     -10.09418614       5.93930920       0.69722762      -0.54244395       1.03380311      -1.35846182      -1.50681125       0.03942261
N       10.82091446      -9.05351041       6.33772193      -0.99685902       0.54461596      -1.28411590       1.98949123       0.76771412       1.85156847
H       11.20602075      -8.24755019       6.85729590      -0.29220914       0.01229952       0.01558048       0.20998933      -0.53166569      -0.52558704
C       11.56182445     -10.32108436       6.62735354      -0.53444429       0.27688505       0.32048967       0.19110765       0.62498804      -1.83601021
H       10.83821669     -11.11504090       6.78033315      -0.00107171       0.01644797      -0.13073155      -0.29595254       0.07540059       0.43324501
C       12.36736738     -10.86642591       5.34724532      -0.11956499      -0.30018995       0.12194703       0.59763766       1.08258160       1.07139892
H       12.56580996     -11.90438148       5.56402582      -0.03623476      -0.09296946       0.06459459       0.28078055      -0.39242370      -0.14291354
H       11.71650294     -10.80738897       4.50863686      -0.29222395      -0.13650318       0.08455400      -0.74574661      -0.04500504      -0.65102160
H       13.32397368     -10.35399149       5.03012062      -0.00127290       0.08210898      -0.02753669      -0.99037784      -0.26996310       0.88526115
C       12.51415385     -10.07139190       7.77915190      -0.98837792      -0.27106021       0.24805432       0.84916327      -0.87640762      -0.55070684
O       12.88462807      -8.92887997       8.04858307       0.66370547      -0.10783733       0.63869945      -0.04183733      -0.43297730       0.52119388
N       13.06084967     -11.23214608       8.29096090      -0.72451756      -0.21616845       0.07195882       0.34483391       0.47523357       0.48290314
H       12.81928676     -12.15396760       7.94994897      -0.11379083      -0.24116465       0.21976400      -0.49844076       0.18944792      -0.13389481
C       14.29613454     -11.27060864       9.08363324       0.24505023       0.61685002      -0.15353585       0.86829658       0.20700930      -0.56791093
H       14.78165232     -10.27785047       8.94815677       0.01230484      -0.15606331       0.10977319       0.25549724      -0.80853959      -0.58808522
C       14.09026346     -11.37257471      10.57249161      -0.84034345      -0.26955074      -0.29238897      -1.38257274      -0.10232758       0.92739788
H       13.33865383     -10.60138626      10.85376072      -0.08449366       0.29300916       0.11670829       0.51010802      -0.46887293       0.04106268
H       13.68688519     -12.36224130      10.81934315       0.17970752      -0.25343506      -0.10190574      -0.12230167       0.17826486       0.05481424
H       14.98662116     -11.23904396      11.18628617      -0.13975108      -0.10384053      -0.09859937       0.08549156       0.15244324      -0.38951581
C       15.06122751     -12.59395317       8.66085428       0.48317134       0.19102683       0.69345604      -0.93665890      -0.33449498      -0.38140582
O       14.46387973     -13.68842113       8.67519352      -0.02480190       0.13043381      -0.45800720      -0.80571857       0.79244812       0.30146136
N       16.34909767     -12.59540435       8.32815501      -0.30053725      -0.32517150      -0.10652683      -0.04462220       3.20501149       0.04621835
H       16.80047821     -11.67194912       8.35489574      -0.05692327      -0.16151399       0.15582916       0.12518111      -0.77518946      -0.02748779
C       17.12419149     -13.78844645       8.29509704      -0.40340678      -1.03011936      -0.22760840       0.44964244      -0.00668638       0.69597375
H       16.45155898     -14.55483217       8.04554303      -0.01692583       0.05103556       0.29540894      -0.94786867      -1.12796551      -0.69794092
C       18.27799356     -13.69876830       7.40212209       0.25885591       0.20279006      -0.82103101       1.11512101      -0.71996026      -0.09091904
H       18.79873878     -14.66371466       7.42970133       0.12674751       0.00976921       0.03079521       0.09155514       0.24906831       0.04003414
H       17.98054500     -13.53883424       6.39255120      -0.01954852       0.10727976       0.05254157      -0.14059716       0.47654052      -0.85320050
H       18.95171998     -12.94892831       7.79834578       0.33786509      -0.03465730      -0.03418454       0.33954447       0.20625705      -0.29678278
C       17.56343036     -14.07799833       9.70596942       0.19278784      -0.62714256       0.51034560       0.96219495      -0.56803323       1.80590135
O       18.72064918     -13.97715614      10.12787348      -0.74106420       0.29782871       0.07546090      -0.24501612       0.28039874      -0.46262311
N       16.54210969     -14.46039152      10.49806493       0.37201983       1.19721800       0.14370541      -0.63934989      -0.42786659      -0.53748670
H       15.64381255     -14.50613246      10.02346296      -0.12648308      -0.17551904      -0.06696328      -0.05230306      -0.08768362       0.35859927
C       16.60176649     -14.55093450      11.93194028      -0.88394378      -1.17824863       0.58014202       0.47068188      -0.65297276       1.10461164
H       17.54344294     -15.10000080      12.28466272       0.14486686       0.05925463      -0.06995733      -1.08255868       1.09741457      -0.61674942
H       16.54516606     -13.51187032      12.33239840      -0.28049086       0.00715187      -0.18750834       0.23360962      -0.80076693       0.28617745
H       15.75189847     -15.16444309      12.33305753       0.08729356      -0.02331981      -0.02579687       0.54204266       0.70143560      -0.54210196
