112
Properties=species:S:1:pos:R:3:momenta:R:3:forces:R:3 energy=-498.0472896505099 pbc="F F F"
H       -3.35053856       0.32816459       5.86993692      -0.03719651       0.30216113       0.26362435      -0.47416899      -0.28441897       0.24255292
C       -2.55249209       0.81425253       5.35185477      -0.07689806      -0.62076325      -0.53778300       2.00766345       1.17207591      -0.43729972
H       -2.54342580       1.91365799       5.44365915      -0.03804616       0.07773188       0.21079223      -0.56151317      -0.37109901       0.40520562
H       -2.58647461       0.68634559       4.28496330       0.10567922      -0.07570490       0.38421783      -0.37223442      -0.61962227      -0.48164096
C       -1.15119771       0.35736787       5.79382597      -0.02504959      -1.02334990      -0.24616084      -1.16218825      -0.84817953      -0.19625419
O       -0.59252634      -0.68514135       5.47505394       0.37910883       1.01346244      -0.17746023       0.00897398      -1.11359908      -1.14682276
N       -0.54764559       1.16214150       6.63495929      -0.47332117       0.10741501       0.05430685      -0.48066611       3.36183015       2.61100724
H       -1.12738798       1.89340300       7.08133685      -0.04210435       0.11744695       0.20497635       0.55739588      -0.47121800      -0.69505853
C        0.76504884       1.01893539       7.21658257       0.45491657      -0.26699135      -0.32989609       1.13375677      -0.08595646      -0.72171305
H        1.56119059       1.22721398       6.47322943       0.42647883       0.12853591      -0.09741120      -0.53485546       0.00649517      -0.00044831
C        0.99456969       1.95484959       8.40362423       0.68152604      -0.89691827       0.80664419      -0.88320985      -1.07164309       0.90510711
H        0.36637508       1.57620220       9.24712817      -0.14255535      -0.18937138       0.03053539       0.15283439       0.64711476      -0.48751825
H        2.00994196       1.93763383       8.80610059       0.30061686      -0.20397572      -0.00965847       0.03882058      -0.13237672      -0.53080887
H        0.73390436       2.95935307       8.11979253      -0.01353185      -0.19282534       0.13641729      -0.14969347       0.54184199       0.07383192
C        1.06179684      -0.40182890       7.60620032      -0.14986654       0.72027131       0.53883311       1.24439009       0.21209197       0.39388240
O        2.20803442      -0.82078204       7.43531201       0.17676949       0.44084710       0.53179996       0.23222466      -0.40682218      -0.23300963
N        0.17418836      -1.07800082       8.34728936      -0.93027002       0.32183387       0.87333860      -0.32587246      -0.31446358      -0.28548562
H       -0.80149224      -0.83778178       8.32485907      -0.16871170       0.03045029       0.08282777      -0.13041136       0.30313978      -0.04616199
C        0.46072649      -2.42262711       8.76284797      -0.54536389       0.76991150      -0.29836550       0.47281190      -0.62226670       0.32133736
H        1.52662715      -2.48252804       9.17059880      -0.33372693       0.16308367      -0.13245998      -1.39648612       0.37540063      -0.23772374
C       -0.58439110      -2.82236590       9.80824159      -0.14197305      -0.69152754       0.33218493       0.70022709      -0.02474361       0.20675331
H       -1.57743175      -2.94523456       9.38098378      -0.12581680      -0.20388525       0.03415427      -0.02861454      -0.32690373      -0.22568791
H       -0.22519791      -3.73016694      10.29125202      -0.30854136       0.17146505       0.15577812      -0.42827096      -0.07236600      -0.05519657
H       -0.67837284      -2.04168835      10.55133551      -0.11822517       0.28627529       0.11990955       0.15700677       0.25344925       0.32090799
C        0.51806421      -3.54780592       7.69084080       1.20447657       0.67554173       0.22928693       0.04793217       0.31170274       2.59631220
O        0.75905741      -4.64253221       8.19551540      -0.27140830      -0.48373300       0.00139836       0.41290892      -1.03020756      -0.63346194
N        0.36943461      -3.27718720       6.41974191       1.09646467       0.42916431       0.23626363      -0.79893716       0.94892929      -2.13400702
H        0.03572587      -2.31293535       6.14438081       0.08394777       0.34351105       0.07738930       0.58956293      -1.24374194       0.13547683
C        0.62021701      -4.28045443       5.36673645       0.00497530       0.60256729       0.26389790       1.49897233       0.18438002       0.56455872
H        0.41467720      -5.32123768       5.73341260      -0.09040304      -0.13525631       0.13171233      -0.30792307       0.95666552       0.00359505
C       -0.15477217      -3.96684056       4.10191527       0.03389030       0.31408315       0.14978164      -1.78685545      -1.42651076       1.08366091
H        0.23680136      -4.57114696       3.29781292       0.13401793      -0.03295117      -0.24731047      -0.15978075      -0.17746087      -0.29231411
H       -1.26105271      -4.16701224       4.31024727       0.03333477      -0.01549538      -0.21393618       1.37635807      -0.25048543      -0.42636654
H       -0.18469193      -2.95019280       3.83977555      -0.18568712       0.13603840       0.22324300       0.62794056       1.54381699      -0.30978998
C        2.18597515      -4.43777371       5.10735924       0.24752210      -1.12314055      -0.56659777      -0.57397339      -0.24185291      -0.76002112
O        2.55295339      -5.18758980       4.19147703      -0.74604496      -0.04111792      -0.30097017      -0.05077323      -0.06600832       0.27610619
N        3.06679029      -3.87952965       5.96149277      -0.81132027       0.71901886       0.54606105       0.42501164       0.42938986      -0.13754154
H        2.77307270      -3.09709983       6.51338786      -0.05503952       0.03165321       0.07762841      -0.36250901       0.36422661       0.42644919
C        4.53513027      -4.04268675       5.84127717       0.62018719       0.97643707      -0.54547910      -0.62762576       1.07764578       1.12173373
H        4.81947627      -3.89169987       4.83588092      -0.42578520       0.16753490      -0.16668537       0.36065386       0.49331902      -1.30235717
C        5.24484525      -3.00936731       6.79578427      -0.12996087      -0.98332184       0.35975671      -0.27993345       0.29029864      -1.63752843
H        6.31014084      -3.22648267       6.86985722       0.09255844       0.17282002      -0.04529286       0.10553131       0.30614338      -0.65306390
H        4.98927471      -1.93399611       6.53491527       0.08361372      -0.24414743       0.05066301       0.55790777      -1.33674102       0.00220641
H        4.93349684      -3.14861014       7.78579962      -0.25501693      -0.24793465      -0.04343840      -0.96411563      -0.34062656       1.56127542
C        4.94522800      -5.45484644       6.11314380      -0.24235239      -0.07965965      -0.80844120       1.07134610      -1.01619403       0.63292929
O        6.06458707      -5.90253834       5.77496062      -0.35605117      -0.25116671      -0.23235104      -1.33116273       0.37615488       0.17789668
N        4.03991901      -6.16251010       6.82902122      -0.09180024       0.18458931       0.32913385      -0.27230163      -0.84469622       0.11954110
H        3.10493575      -5.80548901       6.96561453      -0.07407140       0.04291563      -0.11298366       0.12043353       0.50243193       0.03818490
C        4.15203147      -7.58146285       7.10681837       0.30067124      -0.61356078      -0.54720754      -0.44350966      -0.33580498      -0.04836264
H        5.04115562      -7.79123959       7.68194951      -0.01587443      -0.08141573      -0.06575681       0.73122818       0.00527100      -0.31486470
C        3.00943882      -8.04881880       8.03655506      -0.47343229       0.53389479       0.56047930       1.05742022      -1.01450069      -0.46058786
H        3.09944414      -7.39986466       8.88060418       0.02162821      -0.16874597      -0.12586948      -0.54168562       0.36154345       0.77623003
H        2.07070079      -7.95753470       7.50703242      -0.08159035       0.02532309       0.24963609      -0.46691788      -0.03714814       0.24831103
H        3.20575568      -9.11531379       8.37460909       0.23092118       0.15389805       0.20797080      -0.33933859       1.28542096      -0.60938462
C        4.15398804      -8.45010911       5.86371174      -0.66558239       0.01782959       0.29975990       0.70589183      -0.58642525      -0.77093929
O        4.60601811      -9.59307984       5.91150895       0.80546396       0.53759401      -0.04453141       0.30664073      -0.56951287       0.82887112
N        3.68759329      -8.00848139       4.66898646      -0.01571340       0.48564712       0.00065309      -0.53607718       1.36924291       0.06047761
H        3.36985895      -7.04197435       4.54770528       0.33041418       0.09168742      -0.12830750       0.01206030      -0.27244757       0.01990729
C        3.67172408      -8.90719790       3.53083290      -0.21985020      -0.20727313      -0.35268717       0.84041737      -0.30753142       0.33813961
H        3.69985685      -9.88756379       3.99882448      -0.09197571      -0.10742874       0.08848561      -0.05937165      -0.38134533      -0.04061274
C        2.45672444      -8.78038181       2.67134622       0.14584679       0.59383360       0.29930595      -1.19609076       1.06698195      -0.06931826
H        2.38308909      -7.75990079       2.22661018       0.14401448      -0.01372548      -0.04952774       0.17308420      -0.79078449      -0.12622891
H        2.31703322      -9.58550677       1.94512053      -0.22776732      -0.07420314       0.03694017       0.53071678       0.33705402      -0.08628686
H        1.59078724      -8.84394470       3.32363243      -0.24529308      -0.05191037       0.09079150      -0.26336153      -0.03320791       0.23863358
C        4.95794154      -8.90251333       2.69321780       0.78545529       0.37228828       0.21056332      -1.30319594      -0.28205788       0.64527035
O        4.98250265      -9.59911533       1.69260115       1.00877547      -1.06495425       0.16253375       0.43622686      -0.49373167      -1.24378842
N        5.99527167      -8.22059773       3.15524605      -0.47254970      -2.31786066       0.94898263       0.59810622       1.06856800       1.66803771
H        5.91928306      -7.74520095       4.06783378      -0.10442815      -0.03444937      -0.16275774      -0.03953546      -0.17956784      -0.72142580
C        7.24230048      -8.11476419       2.42577490       0.54254661      -0.01994156       0.15686694      -1.48290043       1.13323071      -0.08733152
H        6.91671201      -7.85942728       1.41079622       0.06034793      -0.08426017      -0.28766584       0.49433217      -0.32589707      -0.22313634
C        8.10860211      -7.00301478       2.96766807       0.49062743      -0.98919457       0.40958914       1.82533863       1.35213829       0.93702071
H        8.19291144      -7.05271170       4.13473696       0.18597925      -0.32158915      -0.02763059       0.18669425      -0.12848751      -2.09455033
H        9.12846125      -7.08367481       2.41851038      -0.04760436      -0.06154684      -0.14651985      -1.53082247       0.01058300       1.33118531
H        7.75856610      -5.95455586       2.76198965      -0.21561739       0.05182788      -0.13600773      -0.18051673      -1.11326818       0.02869170
C        8.02410210      -9.36260087       2.41556518       0.72251691       1.24438022      -0.40323326       3.45169819      -1.02892766      -1.25200269
O        9.08194615      -9.40079307       1.73193691      -0.42068752      -0.00734146      -0.42305947      -1.51126539      -0.10354415       0.55721437
N        7.69326244     -10.39237219       3.21596386      -0.10552459       0.06116108      -0.07002336      -0.20333373      -0.83099003       0.40017213
H        6.87916777     -10.25555405       3.81021894       0.21207603       0.25669030       0.05122299       0.13586067      -0.31833217      -0.07855755
C        8.48556751     -11.63818311       3.36279266      -0.06641721      -0.11621911      -0.05086585       0.00820619      -0.91417290       0.88480296
H        9.56858285     -11.41313678       3.36371066      -0.20953530      -0.12389880       0.06649020      -0.46994893       0.19249882      -0.43025509
C        8.19049198     -12.26926910       4.78870190      -0.03129340      -0.21154600       0.36553907      -2.73651620      -0.39241281      -2.02133974
H        8.62293382     -11.66677349       5.52476090      -0.08766581       0.23607684       0.02396010       0.69748619       0.97213725       1.19663282
H        7.01900790     -12.20557173       4.92803087       0.15519191       0.03570317       0.17550299       2.21728998      -0.54715045      -0.05035872
H        8.57190617     -13.30868931       4.87076346      -0.14384678      -0.15835152      -0.21059790      -0.43653391       0.69404812      -0.25671545
C        8.25063834     -12.75709447       2.25349712      -0.74028187       0.61212242      -0.69804882      -0.50668330      -0.11621404      -0.08249372
O        8.66509480     -13.91959149       2.39138886       0.09716734      -0.69782247       0.56304784       0.17577185       0.88276302       0.03102173
N        7.53436317     -12.34554100       1.17637870       0.54301266      -0.48615023       0.88688612      -0.11250651       1.38162843       1.16564083
H        7.13954747     -11.38975200       1.33126973       0.18423705      -0.06497206       0.09272580       0.25186544      -1.13000542      -0.72124788
C        7.13054415     -13.13066356       0.02032834      -0.14908617      -0.63504407      -0.99959090      -0.78388311      -0.12750206      -0.06829748
H        6.34635271     -13.91996219       0.21927756      -0.01390108       0.06279572       0.25893683       0.81649861       0.80309742       0.40979044
C        6.51550212     -12.16042709      -1.02826481      -0.36255386       0.67160767      -0.44011760      -0.11591524      -0.62453060       0.08085442
H        5.80654774     -11.42140533      -0.63358827      -0.16669381      -0.07970417      -0.05125701       0.29060412      -0.25425653       0.36348526
H        7.29552531     -11.66521400      -1.55751775      -0.27798842       0.23439700       0.13840634       0.71965273       0.71746326      -0.26760478
H        5.98332033     -12.72265515      -1.78493767      -0.21803808      -0.02479883      -0.23730276      -0.15394842      -0.36814524      -0.06375831
C        8.27518980     -13.95780608      -0.57336780       0.10005417      -0.20972857      -0.24079268      -0.93504949      -2.70720567      -1.66268547
O        7.96677518     -15.09975896      -1.06976248       0.84353782       0.19584831      -0.07511121       0.36266353       2.75143351       1.32690889
N        9.53221102     -13.47911937      -0.76258669      -0.62359251       0.55152043       0.19715409       0.43009060       0.39655179       0.87991962
H        9.96609010     -12.74354395      -0.19758227       0.01146955       0.33799563       0.01283570      -0.85150621      -0.12323516      -0.17575939
C       10.49543271     -14.39095354      -1.34946262      -0.42060497      -0.14043173      -0.37811803      -0.14922928       0.42860896      -0.74601976
H        9.89800114     -15.04061877      -1.95175836       0.03741427       0.04478681       0.21181503      -0.64044016      -0.78781261      -0.14567588
C       11.36391197     -13.72029610      -2.41007760      -0.31648370       0.45335732      -0.37710755       2.44673993      -1.97183652       0.45383824
H       10.77753389     -13.21121895      -3.10169144       0.03522359      -0.09050303       0.03673349      -1.11281068       1.19039165      -1.00422014
H       12.20119603     -13.13320395      -2.05180472      -0.11319019       0.06716889      -0.00703207      -0.15749230       0.63762998       0.44264906
H       11.93507028     -14.49402233      -3.00210941      -0.07393400       0.05900777      -0.02692809      -0.86247035       0.35236553       0.66999102
C       11.20858421     -15.32109859      -0.40782881       0.22278892       0.16949551      -0.64091166       0.26123524       0.47728143       0.22211773
O       12.09152682     -16.01012304      -0.91078222       0.08441549       0.18561875       0.25038461       0.41846381      -0.56323745       0.09839022
N       10.93223121     -15.38126303       0.92242418       0.03075945       0.46887930       0.14626808      -0.85809132       0.04581189       0.15659352
H       10.10391473     -15.00519454       1.43095236      -0.30329987       0.12912648       0.03569160       0.63752365       0.08297603      -1.25278363
C       11.60873083     -16.43529679       1.66710831       0.54226223      -1.07876253      -1.42747459      -1.46340776       0.06100220       0.11231060
H       11.27477814     -17.43078854       1.32034566       0.17852571      -0.19657920      -0.44245446       0.21715234       0.28621196       0.14397902
H       12.65397855     -16.33090004       1.48915751       0.04172473       0.11721635      -0.12032454       0.87099765      -0.12802274       0.31605072
H       11.26117974     -16.26611896       2.69417584      -0.12711662       0.03160506      -0.16521328       0.67980941      -0.37302224      -0.00977633
