112
Properties=species:S:1:pos:R:3:momenta:R:3:forces:R:3 energy=-497.6978818756327 pbc="F F F"
H       12.60011545      -8.01664018      -1.04462028      -0.27208435       0.06361412       0.27783468      -0.37347106       0.11234071      -0.92931170
C       11.74655910      -8.21488857      -1.76399728       0.27511171       0.63379634       0.02189340       0.95601226      -0.25324114       2.55151494
H       11.62058220      -9.29436837      -1.53061863      -0.08998211       0.12010424      -0.00894703      -0.40178368       0.62388941      -0.73144030
H       12.05398463      -7.96910626      -2.75988302       0.19069262      -0.07935897       0.05499280       0.02415670       0.01799332      -0.54597768
C       10.64156965      -7.40673636      -1.13895521       0.11475718       0.33615746       0.35137915      -0.92192592      -1.11653168       0.24410657
O       10.01492396      -7.83980502      -0.14859341      -0.63937331       0.05460766      -0.47891117       0.60470507       0.37565967      -0.64196315
N       10.26836691      -6.22394920      -1.71120814      -0.54742396       0.71886568      -0.31677148       0.44027208       0.00775870       0.18135968
H       10.88416409      -5.78635888      -2.37856373      -0.27686825      -0.05483283       0.22334916       0.05465530       0.00587788      -0.12144631
C        9.38966583      -5.37987072      -0.94017584      -0.36460402       0.10708037       0.62921542      -1.31453679       0.04125589       0.45953184
H        9.74990441      -5.26447087       0.08147565       0.10293804       0.23534615       0.05707501       0.14123768      -0.35611291       0.18937762
C        9.22404854      -3.95046379      -1.45760389      -0.79856913      -0.53568410       0.27859158       0.69876984      -0.05170171       0.84705539
H       10.08101324      -3.36343976      -0.98126280      -0.12074411      -0.03651303      -0.01577397      -1.57565937      -0.16578222      -0.80494699
H        9.24812759      -3.87665370      -2.52901311       0.08349316       0.15504432      -0.07994201       0.29897386      -0.05423885      -0.67360180
H        8.19205257      -3.67689957      -1.19113900       0.10176031      -0.13943029      -0.08534268       0.68522574       0.67801535       0.38868431
C        7.97345011      -6.02184934      -0.74960979       0.06390738       1.07359273      -0.59336190       1.33119874      -0.62277710      -1.31877552
O        7.27865918      -5.75180946       0.20912734       0.35930199       0.60955758      -0.79076339      -0.57164073       0.37737714       0.55347954
N        7.59829653      -6.86775377      -1.74820872       1.17153302      -0.22746335      -0.62610833       0.89351276       0.95516810       0.08926484
H        8.28981014      -7.08894263      -2.44099310       0.23684395      -0.05885534      -0.13815578       0.18955287       0.11525333      -0.26395255
C        6.32685892      -7.50282967      -1.83258056      -0.37296470       0.45903133      -0.12416049      -0.36737146      -1.41796314       1.45285788
H        5.55121437      -6.76007773      -1.83116363       0.31896360       0.13644001       0.09258306      -0.52108437       0.31137491       0.07497992
C        6.25040434      -8.39244301      -3.04419811      -0.12226208      -0.53463045       0.16512823      -0.03335840       1.42076746      -2.36101768
H        6.87793543      -7.86141304      -3.79367310       0.01068118       0.15789645       0.11329511      -0.04796311      -0.42959613       0.02559178
H        6.64805772      -9.41471124      -2.99015003       0.21114810       0.16558242       0.04954103      -0.57529518       0.31489170       0.31795572
H        5.25668200      -8.24860418      -3.53343740      -0.10897592      -0.16296087      -0.02649105       0.49218662      -0.97055707       0.65007837
C        6.16453011      -8.39101488      -0.57010979      -0.32583671       0.84234666       0.25095749      -1.12484457       0.78083430       0.43030653
O        5.20969521      -8.33386135       0.21137548      -0.37241270      -0.74866835      -0.07148917       0.03698516       0.05024868      -0.38360924
N        7.17966262      -9.25160941      -0.41936893      -0.07305740       0.25442737       1.09334004      -0.15450087       0.15558504       1.28437794
H        8.02065285      -8.95313706      -0.88965133      -0.24263256       0.28470138      -0.18026203       0.42397776      -0.30341638       0.13274570
C        7.31400460     -10.01060413       0.83459970       0.82353661      -0.66937846      -0.63302797      -0.73451251      -0.62939813       0.14819586
H        6.40667947     -10.63660382       1.04927934      -0.02530174      -0.29107638       0.46825721       0.45005996       0.54517049      -0.90966427
C        8.44660329     -10.97613360       0.54947038      -0.42263597       0.03929771       0.05917284      -0.40205291      -0.70076981      -0.26807750
H        8.09923751     -11.45197716      -0.37224159      -0.32270043       0.10098425       0.02316383       0.31866463      -0.20831763      -0.08402400
H        9.39458263     -10.49127809       0.31927505       0.32153562      -0.28174319       0.22184863       0.11771937       0.02119960       0.40497382
H        8.50227890     -11.78848785       1.27598210       0.13108153       0.39311955       0.10438291       0.36425524       0.35740670       0.21314115
C        7.33364840      -9.28692720       2.20646961       0.59804818       0.35056405       0.14464820       1.49378122       1.08922659      -1.59102433
O        6.83071251      -9.84411874       3.15144986       0.02151564       0.77317476       0.51597896      -1.13145175      -1.00382504       1.52079444
N        7.97312602      -8.09980859       2.32511174      -0.77233568      -0.68582455       0.18922099       0.67559066       0.06734737       0.22580426
H        8.48892159      -7.73039927       1.51872142       0.01573415       0.03542026      -0.16857812      -0.17287525      -0.16675174       0.52588263
C        8.09355432      -7.44674788       3.66483878       0.92405679      -0.35499023      -0.94866680      -0.89124822       1.03255394      -1.21466522
H        8.16231946      -8.19380453       4.44524607       0.12311156       0.01548779       0.09350288       0.09588779      -0.21424769       0.01254383
C        9.24614040      -6.44917235       3.61405489       0.48008646       1.45482563       0.24636590       0.61889218       0.45074220       1.19618435
H        9.27180374      -5.68933894       4.44189653       0.03387928       0.11770734      -0.21788945      -0.55402511      -0.82614505      -0.45130926
H       10.24612529      -6.91454561       3.69177135       0.01462458      -0.00137524       0.01643596      -0.47971213      -0.03919425      -0.50853675
H        9.12176349      -5.86283602       2.71539854       0.05937576       0.17023802      -0.10365772       0.31475788       0.14263285      -0.45589090
C        6.74716198      -6.65453667       3.93783287      -0.34587071      -0.42168205       0.36305236       2.54053393      -1.59896853      -2.70234333
O        6.26328232      -6.66709630       5.02203533      -0.55778980      -1.20168408       0.16289312      -1.52065155       0.32901209       3.68777974
N        6.22589371      -6.06144815       2.87531295       0.33976845       0.14737880       0.16153859      -1.84904154       1.59234684      -1.45825330
H        6.57870322      -6.16370507       1.92411940       0.04538020      -0.26068488       0.00565843       0.25521199      -0.06655230       0.43050652
C        4.97226280      -5.24176782       3.01846931       0.00189484      -0.22578620       0.71688642       1.00681432      -0.50495702       1.73611677
H        5.10052076      -4.74433822       4.00549655      -0.43305702      -0.05425930      -0.03486605      -0.22554776      -0.22914351      -0.49799850
C        4.76460158      -4.25274299       1.93175030      -0.59841361      -0.49326324       0.13848378       0.20785005       2.05263360       0.48442236
H        3.86134682      -3.64742864       2.14476477      -0.00402378      -0.22057563      -0.34186949      -0.01560999      -0.83254977      -0.26339885
H        5.51972631      -3.42309721       1.85610283      -0.12935470       0.08692202       0.12045857      -0.05831157      -1.23504305      -0.03933431
H        4.69141137      -4.84117204       1.05459616       0.36102585      -0.06827588      -0.05886833      -0.21592856       0.09931120      -1.48104038
C        3.68410524      -6.08888963       3.25251125      -0.10463942       0.08394047      -0.70042663       2.02801483       1.38672943       0.62672109
O        2.81622434      -5.55509686       3.92099174       0.37395936       0.45546509      -0.23531382      -1.19878362      -0.13789632       0.42079307
N        3.77503436      -7.36010912       2.90508809       0.16376106       0.87832519       0.21124951      -0.58286984      -2.22133392      -0.37287105
H        4.39491775      -7.66358881       2.15860770       0.00735106       0.04265815       0.06483885       0.24580833       0.22671139       0.24142533
C        2.84650009      -8.38216226       3.38696464       0.32277012      -0.33153716      -0.07389289      -1.09539536      -0.95176445      -0.15357568
H        1.83488307      -7.91594873       3.54756219       0.07035830       0.05073289      -0.00425122       0.78159355      -0.40612290      -0.69523722
C        2.85594494      -9.63200242       2.41195190       0.30449637      -1.00046518       0.59112558       2.36844732       1.04621856       1.57144645
H        3.75912623     -10.26582819       2.64144993       0.14059099      -0.11133061       0.50637303      -0.51671922       0.74778115      -0.21918700
H        2.05756135     -10.29111527       2.59187330      -0.10045679      -0.07746344      -0.07174195      -1.42007606      -0.46706144      -0.08266467
H        2.99173779      -9.27275250       1.41346789      -0.00563062      -0.13760853      -0.28632064      -0.41076690      -0.05940036      -0.76404201
C        3.11492062      -8.84564302       4.82933005       1.12366307       0.68017743       0.38605650       0.60724150       1.18643982       2.22420605
O        2.26466657      -8.57204123       5.72509627      -0.70360941      -1.36692005       0.63821243       1.11257388      -0.87765197      -1.62999426
N        4.37023047      -9.31530044       5.21323717       0.02076643       0.49901852      -0.19448040      -4.09064969       1.62337334      -0.01569479
H        4.98584425      -9.67134267       4.58228989      -0.17578471       0.01906965      -0.06604370       2.08805776      -0.80265339      -2.62481368
C        4.64575104      -9.65513814       6.54894094       0.20601839       0.22531091      -0.98634146      -0.32864322       1.12492116       1.22761896
H        4.05524463     -10.48633999       6.89971218      -0.21071744      -0.08519266       0.16844150      -0.49258167      -0.53475252      -0.02194251
C        6.08718034     -10.09290426       6.65465687      -0.79411583       0.24706060       0.43888434      -0.47680313       0.95708842       1.61889026
H        6.86945000      -9.40067970       6.41516221      -0.18737800       0.02768619       0.07408407       0.08321673       0.61456775      -0.63463135
H        6.20299628     -10.27855649       7.69788268      -0.32921900      -0.26491452      -0.05614789       0.38186426      -0.40795066       1.00732210
H        6.20585016     -11.01705190       6.17763695      -0.00757346      -0.03724769      -0.00049056       0.35032650      -1.29575842      -1.00094313
C        4.13215874      -8.54856039       7.58964133      -0.33459000      -0.75997534      -0.01747223       1.51620779      -0.55045408      -1.32050201
O        3.60848776      -8.93069163       8.59855676       0.19035943       0.28126071       0.17339404      -1.08533496      -0.80189696       1.88522557
N        4.42988546      -7.26389123       7.35892469      -0.76876432      -0.18271715       0.53644998       1.10720322       1.91969363      -2.00168436
H        4.93438514      -7.06371490       6.42262308      -0.07684628      -0.18447690       0.13808189      -0.94201905       0.05108769       2.09020558
C        4.17557879      -6.21267489       8.38229968      -0.13925981      -0.22854841      -0.24649403      -0.10454672       1.15238440       0.42822276
H        4.37310221      -6.65320549       9.37491001       0.04611343      -0.00176376       0.07964824       0.01025502       0.05154268      -0.42177392
C        5.10480276      -4.95167042       8.19263803      -0.36206432      -0.89510167       0.41525152       0.08138466      -2.26505493      -0.75463315
H        6.10003079      -5.35560635       8.38883632       0.05076977       0.21006184      -0.13484835       0.23210649       0.58715641      -0.22938948
H        5.02622788      -4.52054455       7.19763660      -0.12052803       0.19928914      -0.19301000       0.12316880      -0.31488211      -0.33900300
H        4.86998036      -4.15566905       8.84332202      -0.03765224       0.00038911       0.04625842      -0.36739543       0.59431595       1.19975089
C        2.70544181      -5.67015754       8.54450565      -0.01730210       0.00735543       0.43919753      -0.53265521      -1.61451438       1.41461427
O        2.20178992      -5.46780886       9.71452467       0.19338171       0.63320674       0.31159571       1.30825653      -0.28053781      -3.76370521
N        2.02605612      -5.66104727       7.35514373       0.54321814      -0.65011976      -0.26279370       0.21867153       0.43485106       1.75524626
H        2.54303726      -5.74612448       6.49506449       0.13731856       0.15016591      -0.01483739      -0.01060786      -0.26169170      -0.22595458
C        0.62270600      -5.36722981       7.36474163      -0.09736678      -0.09655257      -0.30834210      -1.64394544      -1.70231949       0.22029115
H        0.49362144      -4.54502976       8.10315268       0.10081867       0.18262469      -0.10530805      -0.48165164      -0.42824667      -0.64493147
C        0.12246522      -5.11404284       5.94341149       0.22885340       0.16451079      -0.85326913       0.38609338       0.03518331       1.20079076
H        0.15031730      -5.94394228       5.27154171      -0.07902365      -0.02905668      -0.00104576       0.29231568      -0.96590998      -0.07748758
H       -0.87198113      -4.74357631       5.92053415      -0.13571467      -0.14398193      -0.05636617      -0.81180227       0.60341976       0.16338665
H        0.83045108      -4.42500123       5.60231197      -0.19943394      -0.41537877       0.20527514       0.65314228       1.50706039      -1.26884567
C       -0.26345613      -6.61800499       7.93991919      -0.48444235       0.04041978       0.35698802       1.90077555       1.22292205       0.21744034
O       -1.25423111      -6.42439572       8.60060764       1.54669139       0.98252734       0.15659247      -1.47347535       0.66532488       0.46710394
N        0.26448356      -7.83865156       7.78904116      -0.41987475      -0.43999253       0.27927515       0.87898086      -0.22352420      -1.06434463
H        1.01605918      -7.97975373       7.12889264       0.38148560      -0.10781894       0.02303577       0.28991310       0.06465270       0.05732820
C       -0.30219315      -9.01031836       8.37846368       0.26493275      -0.61064588      -0.17497685      -1.20329340      -0.51084360       0.85614486
H       -1.39727494      -8.87555498       8.34925128       0.10345298       0.27309499      -0.30127671       0.18929360       0.12980407       0.44816840
C       -0.02572873     -10.27142904       7.56526574       0.23680266       0.17035160      -0.36048407       0.90277766       0.50922217      -0.58055869
H       -0.18105859     -11.20491807       8.08458627       0.18890663       0.11459334       0.02344696      -0.10104795       0.03465520       0.47329724
H       -0.62224600     -10.27617963       6.65915634       0.12859254      -0.10309360      -0.18993104      -0.34296047       0.08503765      -0.12376455
H        1.00266590     -10.22081909       7.20009283      -0.13901760      -0.09317922       0.10103453       0.17181716      -0.25205044       0.18806615
C        0.05938837      -9.17360146       9.89331419      -0.55839584      -1.08832986      -0.63153665      -0.65147709      -1.80630000       0.15148946
O       -0.19299402     -10.24449674      10.47193476       0.49763140      -0.44759045       0.11886891      -0.07257072       0.06900805      -0.56359279
N        0.56712979      -8.15739664      10.56235468      -0.33358713       0.68687901      -0.91542236       0.81159249       1.10618676       0.60974610
H        0.89000605      -7.36764313      10.04311975       0.26094556       0.11934556      -0.05952253       0.13904640       0.55210906      -0.24146620
C        1.11255234      -8.26180956      11.92907902      -0.37466701       0.03558278       0.22221778      -2.16048427      -0.17986433      -0.31004053
H        0.39382203      -8.82685467      12.56878223       0.07062887       0.04514291      -0.38073943       0.49761942       0.43835041      -0.49757755
H        2.01810557      -8.79626148      11.88986475      -0.07603913       0.33731262       0.06865068       1.30483807      -0.68313855       0.12297615
H        1.25894378      -7.26235839      12.31979843       0.27254297      -0.23687168      -0.25862213       0.03891488       0.14968307      -0.00107577
