112
Properties=species:S:1:pos:R:3:momenta:R:3:forces:R:3 energy=-496.17349951227527 pbc="F F F"
H      -11.70249702     -11.91546411      -0.46092114      -0.03314561       0.12469723      -0.07213741       0.08264525      -0.82441706       0.02790368
C      -11.21053310     -12.91191107      -0.40412269      -0.14402910       0.04238003      -0.30025549      -0.38762060       0.34980151       0.17678153
H      -10.86635478     -13.19004184      -1.44026722      -0.06407819      -0.00740799       0.14443062      -0.00713689       0.17177733       1.15980438
H      -11.91831714     -13.69802490      -0.04533403       0.31536673       0.16271024       0.26048934       0.27700838       0.65352254      -0.40538687
C      -10.10987571     -12.77534691       0.65353178       0.00936095       0.33171696      -0.07156080       1.32582006      -0.89096309      -0.95973028
O       -9.88346149     -11.78339677       1.35101479       0.41761276      -0.87182294      -0.49996666      -1.07293652       0.34927807       0.00281143
N       -9.23706583     -13.82746643       0.72246496      -0.61188622       0.52172381      -1.30909594       0.47197641       0.88905981       1.37489271
H       -9.27734320     -14.58424787       0.09534890       0.16662765      -0.30931821      -0.02924609      -0.23249747      -0.87079944      -0.82017698
C       -8.08323015     -13.80487330       1.67496771      -0.16992416      -0.80731605       0.19086224       0.39668391       0.07487517      -0.75003160
H       -8.45128673     -13.15792709       2.49990080      -0.06729492       0.31770197       0.06164908       0.32631227      -0.89377353      -0.01089132
C       -7.55647437     -15.23163004       1.95964827      -0.72904052       0.05164894       0.49333365      -1.11693525      -1.13920629       0.83510493
H       -6.87251493     -15.59493172       1.14333679      -0.17225222      -0.13700266      -0.09071155      -0.55347954       0.60925359       0.90859566
H       -7.05548863     -15.33640160       2.97795754       0.24950537       0.07721462      -0.21436180      -0.37225573       0.39569968      -1.43706336
H       -8.43265284     -15.96325903       2.01155650       0.25886473       0.05611511      -0.19282216       0.93279515       0.91645012      -0.04958072
C       -6.87628685     -13.01027496       1.01981882       0.65032835      -0.45030857       0.16238673      -0.85215113      -0.43395513       0.41468747
O       -5.82182759     -13.58032772       0.76013934       0.89344186      -0.18788591      -0.90377184       0.35219005       0.40848084      -0.31117929
N       -7.20637556     -11.73692777       0.77916602      -0.08558918      -0.48584300      -0.35761816       0.20512107       0.46886552       0.53867489
H       -8.11874904     -11.43093978       1.15683651      -0.08751001       0.19165573       0.04477331       0.49978786      -0.06443535      -0.38263673
C       -6.36536039     -10.76389882       0.03660014       0.40734542      -0.95391442       0.05758343      -2.80126876      -1.25768718      -0.39203884
H       -5.67267707     -11.40844276      -0.46960548       0.13479818      -0.05528428      -0.15360279       0.59965067      -0.05858438      -0.56198396
C       -7.40082506     -10.04445682      -0.91901727      -0.07679363       0.62490988       0.65568843       0.23816936      -1.65227101       2.17263447
H       -8.11069480     -10.77935004      -1.36123770      -0.08714698       0.04962406      -0.01125954       0.18389670       0.49969372       0.86207585
H       -7.81368904      -9.21474537      -0.35018311      -0.15410005       0.00568648      -0.29036312      -0.44320903      -0.09725549      -0.23203977
H       -6.87555546      -9.71791814      -1.72486454       0.01835925       0.23536928      -0.20559051       1.57168994       1.55020218      -2.37171955
C       -5.69039301      -9.88740642       1.03996969      -0.33785225      -0.68883488       0.34974191       0.43875650       0.48853430      -0.01269375
O       -6.14308136      -8.78836896       1.34341227      -0.23904301       0.39591049       0.71109691      -0.31815600       0.53909913       0.18456257
N       -4.55822308     -10.38551385       1.57486494      -0.44202328       0.09556022      -1.49059153       0.22629678      -0.17785704       0.34289425
H       -4.16682492     -11.27040292       1.21454288      -0.03135330       0.08647300       0.23816053      -0.02935494       0.77279843       0.46786559
C       -3.72648281      -9.51434691       2.44471782       0.68271508       0.22401322      -0.18599884      -0.37663190      -1.38567422       0.01707849
H       -4.10964286      -8.50792982       2.16947275       0.24736686       0.11140266       0.09650744       0.72017256      -0.27197983       0.49243882
C       -3.93238009      -9.85223047       4.00850865      -0.43962008       0.42557938       0.87607058       0.70095067       2.92685212      -1.28420869
H       -4.17211604     -10.84935679       4.10537002       0.38062164      -0.16933558      -0.09345218      -0.32886011      -2.28164454       0.21380559
H       -3.04146980      -9.59507580       4.60215991       0.07629179       0.01299492       0.34793003      -0.10522855      -0.18647198      -0.32223809
H       -4.74568162      -9.25445846       4.42817513       0.14995162      -0.01964222      -0.02327545      -0.07023560      -0.04063330      -0.27196210
C       -2.27073837      -9.85452242       2.00123428       1.07462417      -0.05070865      -0.45034403      -1.06047180      -2.38246297      -0.97773241
O       -2.03775083     -10.95868540       1.40810212      -1.26106473       0.05377893       0.66872182      -0.17033653       2.37003764       1.18991556
N       -1.34274820      -8.96667918       2.31137072       0.14268531      -0.14893365       0.31579054       1.33366777       0.74684363      -0.64422517
H       -1.50759591      -8.18025779       2.90941699       0.27847568      -0.34332142       0.28348861      -0.56975364       0.36922318       0.36852775
C        0.07159007      -9.19569270       2.13371925      -0.59784634      -0.76207534       0.33006642       0.52551991      -1.72453393       1.54856822
H        0.18460442     -10.27819310       1.88847835       0.16387094      -0.12930052       0.11799194      -0.13274040       0.50491342       0.53345270
C        0.85515386      -8.44659924       1.08345334      -0.09431766       0.10348527      -0.89448511      -0.81801612      -1.82996588      -1.36900145
H        1.90344262      -8.82240689       1.17194079      -0.20333620      -0.06572995       0.48804636      -0.74189636       0.73277554      -0.47128962
H        0.38059146      -8.66940198       0.07670507       0.16421173       0.19916389       0.24019008       0.86868252       0.17841151       0.97311754
H        0.71126826      -7.43361750       1.28427579      -0.02641558       0.05311791       0.20175455       0.43463553       1.97455642       0.09312928
C        0.72806445      -8.83641413       3.53195343      -0.82027632       0.60126902      -0.99719127      -1.02639829       0.36586547      -0.28086416
O        0.19062067      -8.03700031       4.32769402      -0.84601036       0.79248731      -0.23881574       0.66085378      -0.83281983      -0.93457812
N        1.92611738      -9.39842248       3.69550383       0.82026820       0.04964324       0.46393213       0.75429111       0.17867105       0.85714912
H        2.30713731     -10.08802701       3.09651620       0.19584825      -0.02650634       0.10984124      -0.20778346      -0.63794994      -1.26194152
C        2.92279675      -9.10287772       4.70243191      -1.25190910      -0.43480155       0.14508519      -0.40738538       1.64922468      -1.17414142
H        2.66188423      -8.13872815       5.14900443      -0.15048369       0.10294355      -0.16388197      -0.05226070       0.05634810      -0.03656879
C        2.98943725     -10.15873303       5.75441665      -0.03496791      -0.57047222       0.88903191       1.60577796       0.42424688      -0.78488366
H        3.37614315     -11.01176675       5.21400005       0.02277287      -0.00814244       0.01613257       0.16930145      -0.74986159       0.43663492
H        3.75119384      -9.73005917       6.40728953       0.45866640      -0.23498339       0.32954445      -0.18496422      -0.81118282       0.77752178
H        2.03481627     -10.36535715       6.17662203       0.25069385       0.10056134      -0.00381694      -0.58803840       0.00900822       0.58831334
C        4.30210254      -8.93072420       3.96153378      -0.81202340      -0.78053940       0.67696596       0.47310794      -0.43337940      -0.78802903
O        4.63570445      -9.51078743       2.88567271      -0.24572875       0.60625759      -0.05099274      -1.30494752       0.68507487       2.31404265
N        5.17534430      -8.13595940       4.63635887       0.39944941       0.28198006      -0.05629672       0.48655580      -1.43887594      -1.48709915
H        4.97310453      -7.53746334       5.39887348      -0.05225445      -0.52578042       0.37311351      -0.61169855       0.53710339       1.01145324
C        6.55740200      -8.06649211       4.25155561      -0.06623980      -0.28487245       0.16379670       1.48865483       2.10047315      -0.24990798
H        7.16980236      -8.95707153       4.38742092       0.04578906      -0.07938866       0.13306120      -0.57241540      -0.62030399       0.19879519
C        6.83196656      -7.56971071       2.80476750       0.16132317      -0.35248137      -0.50431745       0.40612439       0.69308788       0.56618755
H        6.26177497      -6.63799240       2.66789253       0.02884950      -0.09311025       0.03587550       0.36938427      -0.07737474      -0.09534121
H        7.94317488      -7.36974407       2.68684709       0.07304090      -0.07957840      -0.01037447      -1.42021700      -0.26267274      -0.13441816
H        6.46206702      -8.28016055       2.08889661      -0.26943267       0.10951304       0.03439502       0.11904812      -0.35972687      -0.31210454
C        7.23354656      -7.02970824       5.22051416      -0.25311351      -0.88912906       0.71079130       0.94996885       0.09653942       1.94303033
O        6.60807401      -6.43844088       6.16194457       1.11042993       0.47532748       0.86653287       1.34850091      -1.28423265      -2.45574818
N        8.63980164      -7.01324683       5.10151067      -0.31876621      -0.70065063      -0.30595346      -2.68122674      -0.25522244      -0.84197738
H        9.06585217      -7.37465945       4.25095301      -0.02701751       0.14684778      -0.12459238       0.04591621      -0.05800116       0.38373706
C        9.50568223      -6.33410592       6.01760989       0.48769162      -0.94476560      -0.21579791      -0.72545919       0.42880915       0.09455819
H        9.05540533      -5.32547870       6.14812902      -0.18931439       0.02145462      -0.12958129       0.59355133      -0.20639694       0.19084653
C        9.42285926      -7.06327485       7.36503353       0.10813303       0.25254058      -0.36428279       0.84072798      -0.55497950      -0.72533233
H        9.83772870      -6.47783563       8.13201075       0.30258638      -0.21743371      -0.31324989       0.78169036       0.84645517       1.10049640
H        8.38594612      -7.10270345       7.55361888       0.07251021       0.17437618      -0.08681173      -1.21426859      -0.41512819       0.45187631
H        9.88535085      -8.07093592       7.41365138       0.05356197       0.25244068      -0.10811848      -0.27876972       0.57393053      -0.45021222
C       10.90430995      -6.28419064       5.40681995       0.67578197      -0.20579000       0.30002919      -0.02943111      -0.81926740       0.68280339
O       11.22553261      -7.02579048       4.48139289       0.54825388       0.21290680      -0.18014580      -0.26113545      -0.10765100      -0.44541798
N       11.77841507      -5.55850516       6.12098817       0.22003448       0.56253510       0.57575577       0.40219850       0.49474940      -1.03577041
H       11.41856482      -4.87263025       6.72291611      -0.13699329      -0.09418723      -0.20892478      -0.66249559       1.11997023       1.10543193
C       13.14080708      -5.28038043       5.69631250      -0.20445774      -0.06660733      -0.90146653       0.36862485       0.75281947       1.10153868
H       13.67007222      -6.12149489       6.08462706      -0.16363687      -0.07551723      -0.19417227       1.13926151      -0.67821900      -0.16857272
C       13.30476420      -5.01724665       4.21898134      -0.61599115       1.10813275       0.62545821       0.14351599      -1.96226743       0.00256085
H       13.00393085      -5.93176539       3.65234555      -0.05506398       0.10718133       0.34148364       0.13596513       0.90581252       0.32225358
H       12.62832143      -4.21449834       4.05445181       0.04866606       0.02296034      -0.13838880      -0.25032834       0.93184097      -0.93996542
H       14.35218286      -4.81872530       3.99683332      -0.05083785       0.10443049      -0.11173701      -0.12206366       0.42342217      -0.16886814
C       13.66937702      -4.00890791       6.48955425      -0.42805514      -0.80267714       0.16828944       0.69033052      -1.01082813      -0.17358679
O       12.95773447      -3.25678810       7.11484469      -0.89249505       0.73936902      -0.07026642      -1.52474533       0.51802094       0.62984128
N       15.01996694      -3.83106838       6.49401582      -0.74278585      -0.24636355      -0.64326560      -2.38425212      -0.16754480       1.13129481
H       15.50459667      -4.26533471       5.79161288       0.08489315      -0.03881410       0.30982570       1.61946195      -1.27934052      -1.91850851
C       15.67539903      -2.75954449       7.14928330       0.30511494       1.09295096      -0.68110762       0.40384348       0.71451178       1.14851194
H       15.11473116      -1.79231497       7.04779992      -0.35223430      -0.25735140       0.05989526       0.24425499      -0.71137743      -0.29452534
C       15.83357047      -2.93555299       8.70537182      -0.18640990       0.33398031       0.07660028       1.12533178      -1.69239608      -0.54154938
H       16.06031432      -1.97094547       9.16255888      -0.08215577      -0.13737400      -0.12023108      -0.08903260      -0.19250609       0.12258824
H       14.92094076      -3.36417487       9.09624749      -0.03153950      -0.11124136       0.26221745      -0.40777618       0.28648287       0.14195416
H       16.64119635      -3.72405414       8.99769032       0.14481882      -0.24015186      -0.07222564      -1.10943928       1.42210392      -0.64641788
C       16.99374254      -2.59063763       6.38938203       0.37706489       0.51996349      -0.35171882       0.88816886       2.08475170       3.68524089
O       17.07797984      -2.69668426       5.19516531       0.50404650      -0.22746634       0.03103108       0.51348401      -0.39795582      -1.40230553
N       17.97932919      -2.06061395       7.26566699      -0.12923158      -0.86471818       0.32153538      -0.31317861      -0.47695326      -1.13548063
H       17.96274170      -2.20219862       8.29552743      -0.24459021       0.33464256       0.06025242      -0.23486537       0.02095883      -1.13330100
C       19.27615140      -1.59306398       6.82390374       0.31209783      -0.36980294      -0.05770653       1.88688941       0.47104899      -0.17951756
H       20.00341084      -2.44802105       6.65438815       0.07354433      -0.02336975       0.06834918      -0.88136643       0.52459018      -0.56205815
C       19.29652529      -0.51093737       5.63190594       0.79900570       0.77738037      -0.15124603       0.51094353      -1.38432849       2.35177506
H       18.64703176       0.27215602       5.98319497      -0.14914629      -0.06323738      -0.01521010       0.03652397       0.74819874       0.03326397
H       20.35208231      -0.21545671       5.51938573       0.23162659      -0.05849129      -0.11012578      -0.51910750       0.16475284      -0.15361407
H       18.91058459      -0.85195178       4.70820977      -0.27916380      -0.13956906       0.14258317      -0.28444321      -0.72823841      -0.83660415
C       19.96788548      -1.01345079       8.12122713       0.04252554       0.66257326      -0.78466905      -1.85756863      -0.31219445       0.12665710
O       19.77895840      -1.58349713       9.21632741       0.07910485       0.90989482      -0.06648768       0.12246767       0.10787245      -1.10368807
N       20.62162507       0.16055496       8.08050160      -0.14763789       0.11000987      -0.17219029       0.08157230      -0.05590121      -0.32608787
H       20.89530378       0.66628025       7.24024985       0.12782695       0.02813437      -0.08998250      -0.52487505      -0.60362852       0.21673434
C       21.28594474       0.54942250       9.28775057       0.28149910       0.67964560       0.89112002       0.15672987       1.44818709       1.03285040
H       22.17171992       1.07507524       8.92736739      -0.03045306      -0.07999346       0.03193451       0.08302552       0.35118122       0.58420748
H       20.64886692       1.23000562       9.99541159       0.07785542       0.18528482      -0.20046224       1.06349437      -1.25532468      -1.28276726
H       21.60485451      -0.35311814       9.80912701       0.00827868      -0.04490719       0.28510199      -0.12886234       0.22148342       0.26609121
