112
Properties=species:S:1:pos:R:3:momenta:R:3:forces:R:3 energy=-497.6864430677108 pbc="F F F"
H        4.37874278       0.33817518      -3.38320557      -0.00159499       0.09974706      -0.10549753      -0.01134764       0.14437763      -0.33407253
C        4.28257232       1.24076003      -2.79064277      -0.90099109      -0.06442512      -0.63381033       1.22784125       0.08012417       1.20084830
H        3.55336867       1.93834546      -3.17195734       0.02573193       0.03625694       0.34579205      -0.70322213      -0.04704697       0.25364067
H        5.23015852       1.81880236      -2.82908070      -0.05990809       0.28892617      -0.02043368      -0.18282446      -0.46408912      -0.24736036
C        4.25623096       0.74209068      -1.32711120       0.58723291      -1.26243843       0.20142642      -0.67842849       0.95741476      -1.24458797
O        4.77663119      -0.32323818      -1.04027871       1.11090649       0.25998574       0.29452054       0.62140236      -1.10356718       0.07612296
N        3.68871681       1.49120166      -0.35691193      -0.31024704       1.61490944       0.09953537       0.51024389      -2.02868084       1.31299478
H        3.31218342       2.37394083      -0.52960982      -0.01940264       0.03363447      -0.05987692      -0.63090246       1.49078685      -0.40554349
C        3.97975511       1.12924101       1.07515886       0.83775108      -0.13673968      -0.56448082      -0.55089136       1.42148273       0.03143998
H        5.09267798       1.34638625       1.17807682       0.10572119      -0.01630281       0.13517504      -1.29464572      -0.96279624       0.45383688
C        3.18679725       2.17389369       1.98936120       0.58646222      -0.14749939       0.74102296       1.53554947      -1.06772065      -0.75071468
H        2.12567522       2.22698359       1.84759438       0.13998021      -0.31015848       0.11570167      -0.64293065      -0.55632863      -0.25936530
H        3.42496252       1.82681477       2.97899975       0.34626455       0.00682560      -0.05607564      -0.13402914       0.31170044       0.68345866
H        3.55239531       3.17867535       1.82524504       0.01934529      -0.10021051      -0.19630704       0.43037717       0.24540161       0.07354395
C        3.48131060      -0.31430877       1.53099005       0.16611061       0.02759206       0.82919586       0.10367302       0.27939158      -0.22049264
O        3.91770035      -0.91835579       2.52125495       0.72781673       0.20466720       0.08514307      -0.04106950       0.81260332      -0.82080034
N        2.40306856      -0.75798415       0.80798640       0.02682687       0.20230038       0.06773058       1.16917906       0.63376442       1.38102391
H        2.34996017      -0.30305057      -0.07446477       0.15278666      -0.61918690       0.20534273      -0.67481279       0.03416385      -0.76454536
C        1.82649566      -2.05065638       1.09579543       0.00399560       0.13819048       0.14769519       0.35202408      -0.51836245      -0.78085551
H        1.55220533      -2.10383516       2.17715262      -0.08159120      -0.04557791      -0.07600079       0.38466962      -0.03738644      -0.78655343
C        0.58609445      -2.26175707       0.22134511      -0.39603451       0.76071269       0.59011340      -0.01655492       1.93024676       1.69107285
H        0.79753701      -2.11243120      -0.81098626      -0.21488959       0.05778309      -0.01608943       0.11247263      -0.31244496      -0.91786912
H        0.04580946      -3.13089613       0.48381624       0.39522697       0.10000072       0.31211344      -0.11882454      -1.29867455      -0.13951267
H       -0.06803381      -1.45524125       0.55272955      -0.08987920       0.06462508      -0.23620880      -0.33896968       0.26023230      -0.35418274
C        2.80821678      -3.19909105       0.78564036      -0.05878366      -0.51259971      -0.73463359      -2.56944755       0.56578398       1.98890624
O        2.51045108      -4.27881631       1.29244538      -0.85878532       0.42884721       0.05150683       0.04180837      -1.00196160       0.29112136
N        3.86631818      -3.01301441       0.05684098       0.25932113       0.75892219       1.27961380       3.14023666      -0.67778839      -2.06618107
H        4.13127581      -2.18088997      -0.47226062       0.00808279      -0.15986815      -0.22333665      -0.36327015       0.12407452       0.51103054
C        4.75332222      -4.21744268      -0.13780738       0.23269993      -0.48128232      -0.02169935      -1.25212143       0.15801019       2.15467683
H        4.09905243      -5.02626781      -0.37051746       0.08961019       0.05124185      -0.14351219      -0.56500595      -0.67210345      -0.75883197
C        5.87556288      -4.00330440      -1.07650777       0.25495288      -0.00244196       0.23791641       1.43563583      -0.11125600      -0.17876795
H        6.47812258      -3.24702889      -0.60006403      -0.17106121      -0.01909696       0.08343108       0.68126342       0.47816061       0.05337082
H        6.54588545      -4.92792527      -1.12269664      -0.04771696       0.05494960      -0.13002009      -1.16054521       1.15712407      -0.34661241
H        5.59337976      -3.54725897      -2.04700014       0.01382997      -0.16450837      -0.15341846       0.00677762      -0.82888512       0.30364067
C        5.21445161      -4.72305606       1.27968779      -1.79663683       0.08316565       0.00144984       0.27450688      -0.55447244      -0.15883034
O        5.48150048      -5.91241662       1.50716566      -0.49269509      -1.16679167       0.00036415      -0.20024427      -0.24095687      -0.91721545
N        5.33770971      -3.87617741       2.30227535      -0.09907419       0.00702343      -0.52882869      -0.92612510       2.08398011      -0.14768990
H        5.18165334      -2.85645324       2.23017726       0.01764116       0.12024433       0.16424155      -0.17436637      -0.87605742      -0.22504953
C        5.90262329      -4.31657964       3.53974173       0.20388077       0.15409179      -0.90091520       1.15374018       0.77484374       0.01292319
H        6.90765984      -4.65435646       3.27563936      -0.03793210       0.15040094      -0.04075334      -0.05676236      -0.65270752       0.35770698
C        6.08577366      -3.12875795       4.46095333      -0.24403393       0.19299448      -0.39545792       1.80671680       0.47207372       1.09054235
H        5.18367764      -2.88442424       5.01280569       0.14191040       0.11520724       0.22305964      -0.17430013       0.15769910      -0.03415539
H        6.86729718      -3.49371445       5.21289974       0.00874495      -0.11597842      -0.01905375      -1.02256711       0.86476414      -0.76413475
H        6.47211743      -2.20204258       3.94065572       0.06961774      -0.28061177      -0.27784416      -0.34934717      -1.04217409       0.47534967
C        5.20051995      -5.36203517       4.37973476      -0.41490995      -0.01053466      -0.70069788      -0.81047585      -0.18192137      -0.69488260
O        5.86952506      -6.14051963       5.06814270       0.21812742      -0.74644026      -0.83428242      -0.79915346       0.20074052      -0.09935174
N        3.82094338      -5.28095755       4.34022594       0.26094030      -0.50232831      -1.39125014       0.69981852      -0.34614596       0.41117154
H        3.37518678      -4.66749592       3.67820381      -0.24024633       0.05629919      -0.08496792       0.23631838       0.26559826      -0.37107488
C        2.94413371      -6.24448859       4.97521782      -0.63145195       0.91049767      -1.23949823      -0.79265512       0.59363140       1.54577974
H        3.21824455      -6.38844916       6.03909731      -0.36556572       0.25437096      -0.05810240       0.20737853       0.42727176      -0.32068180
C        1.42397690      -5.67752492       5.03857840       0.60851341      -0.88944400       0.62409228       1.66632482      -0.43681333      -0.00393478
H        1.36395799      -4.69414183       5.56616958       0.15288186      -0.14584698       0.06845514       0.43434768      -0.79457986      -0.31676207
H        1.13148495      -5.52676063       4.01160029      -0.17559562       0.17215128       0.00014436      -0.55518137      -0.00247992      -0.34435379
H        0.77488829      -6.38983035       5.56370496       0.17477211      -0.10098231      -0.01595195       0.22848888       0.08706945      -0.34932847
C        3.23323903      -7.65864808       4.48662098      -0.86561215      -0.20589844      -0.01647589       0.20558270      -0.51013422      -0.62395000
O        2.99599366      -8.62887935       5.21059415      -0.34499531      -0.52837758      -0.14385883      -0.30928242       0.05158628       0.27574325
N        3.91640747      -7.83129153       3.31844467       0.36807813       0.37063399       0.06545041      -0.37699165      -1.11658518       0.29019070
H        4.09032293      -7.06069852       2.68796154       0.01354982       0.22645242      -0.08333154       0.21630302       0.00892095      -0.16341781
C        4.20952743      -9.24364887       2.90771493       0.35926417       0.63445650       0.79409469       0.72496316       1.39080155      -1.46303547
H        3.31428647      -9.81909994       3.08850756      -0.42088431      -0.04887287       0.11106069      -0.13305979      -0.27840983       0.20253717
C        4.58557179      -9.29782157       1.35352962       0.01582774      -0.68921492       0.48334539      -0.08284819      -1.34623856       1.88808313
H        4.09513245      -8.49274124       0.83737771       0.20837257      -0.06582331      -0.01585159       0.01252235       0.30344329      -0.38205014
H        5.69262810      -9.29462425       1.28137897      -0.20179415       0.18240848      -0.04018066      -0.75586197       0.21124219      -0.39102870
H        4.17850678     -10.28556412       1.04413528      -0.10460111       0.04059893      -0.26626494       0.52296376       0.68375259      -0.24695302
C        5.37772220      -9.88675463       3.65951394      -0.22123267      -0.54577073       0.08627389      -0.88991225      -1.10892607       0.59271662
O        5.46877747     -11.14605167       3.74393902      -0.02258445      -0.42618978       0.92183590       0.04183140       2.25590352      -0.19674789
N        6.21907155      -9.02262438       4.28164607      -0.38930033      -1.03224432      -0.99433545      -0.33618476      -0.50020688      -0.27985300
H        6.10338419      -8.00869192       4.23042904      -0.29451801       0.05575325      -0.08463874      -0.20551285      -0.30110347       0.02854138
C        7.20541625      -9.56493775       5.15721367      -0.37324356      -0.18592637       0.42480664       2.12691896       0.87731868       0.89781232
H        7.98680474     -10.13437951       4.63710373      -0.13638062      -0.18674534       0.04886897      -0.50912010      -0.21609144      -0.20205452
C        8.00066213      -8.39767333       5.91102507      -0.09725040       1.58957337       0.46658466      -0.38620333      -1.52605727       0.35501164
H        8.83118076      -8.91709689       6.47763486       0.29084229       0.03826531       0.04928064      -1.04857316       0.66835581      -0.32105486
H        8.47534639      -7.62730777       5.27435269       0.04426486      -0.09237229       0.17485003      -0.64126370      -0.44151664       0.06533903
H        7.21424060      -7.99717112       6.57463702      -0.22974269       0.29077993      -0.28347361       0.89013821       0.47116973       0.00629711
C        6.64858534     -10.52081039       6.22816933       0.09880204       0.47677679       0.76453959       0.50791041      -1.64314901      -0.17080207
O        7.27825413     -11.54397765       6.53095271      -0.11565584       1.72674293       0.53649922       0.21431315       0.35821199       0.23793423
N        5.44620629     -10.25275206       6.75870344      -0.01029804       0.15847131      -0.50868952       0.15813919       0.97735591      -0.40652666
H        5.01158756      -9.46927465       6.30420444      -0.11034839      -0.00973938       0.04057152      -0.71389731       0.33476575       0.12737621
C        4.78346367     -10.84808411       7.91471063       0.63763059       0.34641011       0.28954916       1.71214533      -1.50309995      -0.37098277
H        5.60579218     -11.05117900       8.69990819       0.07755142       0.09687923       0.22468430      -1.27911494       0.42700090      -0.88711774
C        3.73312836      -9.87686088       8.34188493      -0.19391836       0.75717192       0.17747092      -1.21451748      -1.18296105       1.07233359
H        4.20075842      -9.10038838       8.87898735       0.01616753      -0.12448337      -0.13273868       0.46174180       1.15982509       0.66378655
H        3.18610229      -9.46197271       7.51944397       0.23187598      -0.05584394       0.16997937      -0.20450227       0.13864705      -0.67840678
H        2.99174679     -10.35350613       9.01047778       0.14905031       0.09474369      -0.20319884       0.43432305       0.11188114      -0.20851174
C        4.26299826     -12.30715671       7.63645162       0.04914810      -0.55998798      -0.50062784       0.49703418       0.54375189      -0.48322098
O        3.90758482     -13.00538078       8.57784248      -0.76457031      -1.98867216      -0.00658802      -0.23421460      -0.00068874       0.20606431
N        4.31802779     -12.74713973       6.34053701       0.00796795      -0.24765968       0.64430265       1.29059969       2.11575278      -0.25613696
H        4.86757558     -12.14997813       5.68906675       0.28836294      -0.14857537      -0.13937861      -0.72178300      -0.53689861       0.37665108
C        4.10932472     -14.10514819       6.05093422      -0.27006079      -0.23392501       0.57959432      -1.96982223      -2.73650163       1.48035620
H        3.31016645     -14.39567515       6.82350105      -0.08514332       0.21726604       0.02086222       0.46779069       0.25825423      -1.32967549
C        3.68223183     -14.41561942       4.60842678      -0.41550945       0.53857767       0.00763675       1.60339853      -1.44514025      -0.33579964
H        4.49767275     -14.03388584       3.98753899       0.12907890       0.11230565       0.12427871       0.08624773      -0.06109110      -0.27987622
H        3.58505398     -15.54348152       4.32136907      -0.02356869       0.07026647       0.32245792       0.02543786       2.02336543       1.03091557
H        2.83454453     -13.85257912       4.30230897       0.06834534       0.17246706      -0.04263014      -1.02943705       0.28123301      -0.02863523
C        5.16532041     -15.09252575       6.64548240       0.51581847      -0.25315800       0.90959836      -0.36303601       1.15459901       0.40149624
O        4.78704571     -16.21864310       6.99481176       0.91398798       0.28856274      -0.10674376       0.51980127       0.47271675      -0.69966394
N        6.35639317     -14.52586106       7.02589920       1.10962952      -0.58990638       0.09916724      -1.60873976      -3.42835579      -0.09133816
H        6.61474211     -13.63420975       6.74449069       0.19046827      -0.03472011      -0.02123327       0.72501606       2.01339983      -0.54639950
C        7.17722366     -15.39635458       7.82947356      -0.09174471      -0.60891179       0.13886373       2.00434729       1.45923526       0.70281636
H        6.45190636     -16.04833417       8.26286451      -0.01589952      -0.20931252      -0.12958157      -0.21652134      -1.05984650       0.22028794
C        8.28952241     -16.13829334       7.03819825      -1.34242817       0.12908930      -0.03479662      -1.46822574       0.04036031      -0.01962513
H        8.97083433     -16.64444991       7.76372993       0.17632116      -0.09761151      -0.11621624      -0.27718828       0.51639016      -0.89231496
H        7.69461688     -16.88171078       6.44594218      -0.03825180      -0.20177107      -0.08359797       0.88933948       0.32899761       0.26944999
H        8.75550243     -15.41326900       6.32311710      -0.08200700      -0.04910715      -0.27241394       0.06329875      -0.76376387       0.82260672
C        7.75255910     -14.57220067       9.07411999      -0.48402895       0.68126057      -0.61032098      -1.81875813      -2.29369848      -3.14694269
O        8.93923628     -14.57431971       9.27128389      -0.35435080       0.24356256      -0.03137439       1.49615732       0.95302529       1.28578837
N        6.73318262     -14.04579139       9.74309622       0.59728905       0.43172229      -0.04442287       0.65075451       0.77343979       1.69151922
H        5.79048771     -14.30702070       9.56935209       0.16518844      -0.16802252      -0.01722115      -0.51536733      -0.17516106      -0.69209431
C        6.93692070     -13.23004256      10.91474776       0.93100986       0.43923322      -0.43630634       0.00425241       1.13359247      -0.95041680
H        5.95730103     -13.04239147      11.35117097      -0.05658332       0.14904384      -0.12815299       0.21685328       0.43864009       0.04851261
H        7.58436120     -13.66869398      11.62255506       0.14454589      -0.53113243      -0.14687563       0.62690304      -0.99781078       0.96008190
H        7.50778300     -12.33266572      10.59642806       0.11940874       0.15523088      -0.08076539      -0.75686196       0.04138545       0.31447592
