112
Properties=species:S:1:pos:R:3:momenta:R:3:forces:R:3 energy=-497.56795887623747 pbc="F F F"
H       -5.72418421      -6.55842598      -1.70323305      -0.01450768      -0.26589555       0.20759318       1.42835206       0.16238185      -0.66782799
C       -4.58984784      -6.52411485      -1.84045857      -0.83176517       0.46507436       0.30198290      -1.77132975       1.11953628       0.81857417
H       -4.24991585      -5.90338225      -2.68357255      -0.00362907       0.41207624       0.06782295      -0.40135943      -0.28593764       0.18014752
H       -4.23713240      -7.52063016      -1.96192003      -0.03304234      -0.22901236      -0.03037051       0.36070359      -0.86731308      -0.27559099
C       -3.96217850      -5.97915170      -0.58182554      -0.44151337      -0.81970224      -0.25339616      -3.56523607      -1.27002480       1.07976886
O       -2.79025178      -5.84492311      -0.45021351       0.35280080      -0.23392830       0.20066879       3.59346035       0.88275582      -0.11172617
N       -4.78297966      -5.79704750       0.55612126      -0.98120253      -0.18819110       0.09284679       1.65990028      -0.44751831      -2.84972983
H       -5.71230397      -6.07976466       0.55044427       0.03003300       0.08832500       0.15189497      -1.85560551      -0.24391522      -0.19227696
C       -4.26530712      -5.10351478       1.63892717      -0.20174897       0.78019603      -0.86374546       1.94176642       0.29165947       2.02983363
H       -3.75525610      -4.18213837       1.29466159      -0.11461734       0.11917634       0.21490599       0.09854789      -0.51066429       0.09504474
C       -5.31678441      -4.67659362       2.60365136      -0.16546430       0.17035095       0.38320329       0.33244372       1.38088851      -0.41984390
H       -5.85735922      -5.43287405       3.10027714       0.06242711      -0.30791357      -0.17651093      -0.34196580      -1.05427399       0.76121951
H       -4.80004881      -3.99958614       3.24768086       0.25034942      -0.06930942       0.13269650       0.14862825       0.08837943       1.21499211
H       -6.01264215      -4.02405448       2.12289171      -0.05126857      -0.16896863      -0.19076162      -0.79209391       0.34542871      -0.65988359
C       -3.17739533      -5.95533243       2.49837230      -0.05040940      -0.57179993       0.70396341      -1.94167696      -0.54251896      -1.24180671
O       -2.39845455      -5.47397650       3.31080258      -0.55752040       0.78406574      -1.35551710      -0.04863884      -0.24999145      -0.61606359
N       -3.37590207      -7.31998024       2.28742650       0.68287064      -0.39035944      -0.27994950       2.27568965       0.60361841       1.02718102
H       -4.04946880      -7.64180907       1.62345507       0.06006875       0.03542689      -0.05862679      -0.09969263       0.05067640      -0.42413175
C       -2.34384093      -8.24104304       2.82741836       0.37752104       0.10107109       0.14461554       0.10610849       0.33988980       1.53602257
H       -2.31655304      -7.96854572       3.95318620      -0.03543661      -0.14029075       0.09407248       0.01384285      -0.96080015      -1.50297661
C       -2.70290267      -9.74657409       2.53212014       0.30893721      -0.02743517      -0.61980057      -1.43767145       2.03372528      -2.08096503
H       -2.70839411      -9.94820203       1.41746252       0.11219186      -0.07080848      -0.26546521       0.25768464       0.58438565       0.79407521
H       -1.97838433     -10.42116600       2.89479938      -0.05460806      -0.01560139       0.08262337       0.45714065      -0.74289269       1.06352743
H       -3.77986788      -9.90766773       2.76967843      -0.41804163       0.13978793       0.19490934       0.94606965      -0.28863694       0.60694654
C       -0.84723415      -7.92030647       2.37493252      -0.09689132       0.36107958       0.13864749      -1.98998390      -1.20964026       0.60568745
O        0.10667533      -8.31829219       3.03829432      -0.15843671      -0.72167031       0.50501815       0.16013844       0.00701501       0.37813699
N       -0.72595180      -7.32833443       1.20610828      -1.03396519      -0.36247144       0.43570594       3.28038663       0.18370893      -2.81098849
H       -1.43211623      -7.05730468       0.55077656       0.20205023      -0.17531510      -0.00248248      -0.99340605       0.11424963       0.26428741
C        0.67336405      -7.33294027       0.47803688       0.31842844       0.73395709      -0.79433207      -1.20905017      -1.58866009       1.46032697
H        1.14114178      -8.37202659       0.49420993       0.05628705      -0.11527170       0.00912167      -1.04229850       0.92918428      -0.14212834
C        0.57087490      -6.75072964      -0.90716632      -0.03175533       0.31207308       0.56254669      -1.90279952       1.64460796      -0.01695563
H       -0.10505721      -5.77385790      -0.88479059       0.26275272      -0.39782425      -0.16679018       1.43475968      -1.93376037      -0.09255796
H        1.58448059      -6.47040241      -1.08680630       0.12220281      -0.03529632       0.36605533       0.67331342       0.37860844      -0.90131678
H        0.18557892      -7.41893363      -1.70476447      -0.14798693      -0.04245719      -0.03652281       0.22765287       0.24140390       0.66474187
C        1.66462080      -6.56220734       1.29889514       0.34926628       0.05411256       0.24494458       1.41916743      -0.57264867      -0.01864271
O        2.89718479      -6.76547900       1.25358043      -0.14034198       0.47360318       0.04255400      -0.62844071      -0.21456358      -0.53325551
N        1.18309985      -5.61813752       2.06862122      -0.40810905      -0.11167122      -0.56699325      -1.47600935       1.72258579       2.37381181
H        0.18184460      -5.57892847       2.32951295       0.01864425       0.14524342       0.26879634       0.82696172      -0.11214363      -0.58853219
C        2.07026456      -4.78481550       2.86502632       0.64192455      -0.72569987      -0.17373829      -0.37198661       2.37965244       0.26396074
H        2.78319339      -4.27667308       2.18739980       0.16297671       0.05548146      -0.03247372      -0.52860300      -0.01060189       0.08901734
C        1.27227942      -3.67285042       3.72874771      -0.03668362      -0.60166796       0.79975850       0.24239585      -0.58213977      -1.51411394
H        0.80333762      -4.10623466       4.59558985       0.11112926       0.06526546      -0.04621052      -0.19035438      -0.36516730       0.30841792
H        2.00334657      -2.95918307       4.05688187       0.17128106       0.01325896       0.02122838       0.48779144       0.25985095       0.28245677
H        0.50931814      -3.08735599       3.18261168       0.04409024      -0.06989411      -0.05403343       0.33362699      -0.58578334      -0.16140982
C        3.01743986      -5.40372240       3.85287858      -0.73950040       0.82793746       0.84765571       0.90040409      -1.22984981       0.80116173
O        4.13854926      -4.90675020       4.09172062       0.78092231      -0.01117899      -0.50078185      -1.30349157      -0.36150674      -0.27071176
N        2.59331805      -6.54608538       4.49230115       0.28745826      -0.11533103      -0.54526108      -0.54390844       0.62389965      -0.91931216
H        1.68380693      -6.98761978       4.26921051       0.27019771      -0.14966062      -0.17187294       0.77243340       0.50631672      -0.13565160
C        3.45425848      -7.26395136       5.37619326      -0.77125005      -0.47969914      -0.17014193       0.39225380      -1.94854441      -0.72996283
H        3.75268866      -6.64366194       6.19075748      -0.09309917      -0.19739224      -0.05848566       0.83085149       0.62892646       0.39565448
C        2.63254659      -8.41117474       5.97111655       0.73670953      -0.17530190      -0.77343008       0.43566945       1.83659414       2.27649729
H        1.86074567      -8.01452082       6.66781761       0.14324952      -0.19932333      -0.10189867       0.44880351       0.07668247      -0.34098013
H        2.09593245      -8.88268044       5.23432730      -0.15027116      -0.04550624       0.16570735      -0.98573830      -1.66571856      -1.85312370
H        3.25104879      -9.04975508       6.58011175      -0.01896673      -0.04031593      -0.19513760       0.25767376      -0.49279014      -0.14815230
C        4.77079764      -7.89909863       4.65199231       0.30409358      -0.37365983      -0.28698204      -1.30011870       1.60212454       1.02688714
O        5.67716883      -8.39096021       5.29804236      -0.21014524       0.95166897       0.83706282       0.74154627      -0.80494283       1.52046307
N        4.89358854      -7.74797287       3.34817675       0.36994663       0.08363356      -0.46841709      -0.80452772       0.01389940      -0.94739107
H        4.12752926      -7.34834155       2.83437824       0.27437575      -0.02364445      -0.11924903      -0.30006155       0.15857554      -0.50299786
C        5.99059083      -8.32517201       2.62094407      -1.33842806       0.77370015       0.15192200       0.60717755      -0.37427478      -0.89032744
H        6.01708602      -9.40026483       2.72404341       0.08451161      -0.05960914       0.09579934      -0.11244714      -0.46052241       0.27509613
C        5.86502524      -7.97911760       1.11501351       0.65148172       0.23217548       0.73142451       1.71422298      -0.84314205      -0.72908217
H        5.31408851      -8.73956125       0.49757363       0.02910303       0.06152458      -0.19436614       0.17700145       0.88951535       0.86105437
H        5.44931740      -7.00492260       1.08736565       0.35868361       0.39531778      -0.13586713      -0.83582601       0.83156333      -0.51678552
H        6.88412606      -7.85940707       0.61236483       0.20091976      -0.01564074       0.17400790      -1.10089644      -0.42703982       0.87002036
C        7.35083093      -7.86864835       3.13631248      -0.86867813      -0.87650083       0.16574791      -0.62326824       0.46083008      -0.24064397
O        8.35184902      -8.56861086       3.03791640      -0.35251079      -0.92205395      -0.22007396       0.17094278      -0.19995688       0.10425102
N        7.40887219      -6.59036675       3.58991072      -0.77321375       0.08438762       0.31105599      -0.03849065       0.40149827      -0.00495627
H        6.58436201      -6.02885632       3.78871931       0.02985166      -0.16746594       0.33804828      -0.04061031      -0.33515486      -0.30823546
C        8.68501224      -6.05519180       3.96480055       0.76431674       0.10926974       0.94639249       1.38694821       0.53835442      -0.07330826
H        9.43923516      -6.26931822       3.18137396      -0.01665774       0.24217436      -0.13127444      -0.46449980       0.23827027       0.17570551
C        8.56258850      -4.53872060       4.32800580      -0.47384218       1.01726448       0.01879302      -1.28359505      -1.91465403      -1.29740654
H        7.89401750      -4.60177457       5.14734704      -0.15000072      -0.05142693      -0.09435435      -0.80418879       0.77016146       0.99124305
H        9.45947494      -4.11112498       4.61597658      -0.09593831      -0.17752065       0.10802612       1.92241832       0.50695114       0.70994829
H        8.15617226      -3.92252507       3.53289986       0.05019647      -0.19691544      -0.26657363      -0.27614824      -0.18234617      -0.25845960
C        9.26151496      -6.73516479       5.21242369      -0.46682185       0.82973302       0.71941971       2.51611367       0.77313521       0.64199392
O       10.51917491      -6.70000585       5.42954320       0.38300315       0.42536616       0.19089541      -2.76127149      -0.25797115      -0.18675201
N        8.33106038      -7.17180989       6.09407648      -0.10181541      -0.18855463      -0.12835278      -0.01221796      -0.39405429      -0.07591434
H        7.41182583      -7.33406955       5.66656109      -0.29249587       0.00721416       0.15824429       0.04988912      -0.12681969       0.65049073
C        8.67915911      -7.72300571       7.40525436       0.06042378       0.70418759      -0.02692523      -0.66846922      -1.26805003       0.10405870
H        9.49271999      -7.13150475       7.78093371      -0.05112673      -0.17642380       0.12133050       0.72672066       0.30605500      -0.00725020
C        7.57258201      -7.65111805       8.46008277      -0.40252530       0.61970991       0.41610909      -0.24034927      -0.38101204       0.27992438
H        7.05720629      -6.71437669       8.46768977       0.05574966      -0.07726067       0.04734836      -0.10676797       0.93449664      -0.27233881
H        6.78077906      -8.38533586       8.34309940      -0.22943021       0.04562382      -0.00138892       0.08359717      -0.36460203      -0.29127162
H        7.95856942      -7.77098547       9.48089309       0.06208419      -0.09065903      -0.12232937       0.26663260      -0.17193124      -0.42447854
C        9.27988435      -9.19268137       7.34930556       0.62094780      -0.29615358      -0.03238585       1.11953389       0.16705293       1.17158124
O        9.62986079      -9.79079800       8.38431660      -0.25578154       0.70571317      -0.53200804      -0.46111446       0.65190926      -0.49362864
N        9.63440439      -9.60405831       6.12790634      -0.07206697       0.06787408      -0.03778655      -0.73458589      -0.08066453       0.25517165
H        9.17631954      -9.06886157       5.43437749      -0.02659542       0.00113697       0.07539395      -0.06868098       0.22578208      -1.44326962
C       10.54572852     -10.65163062       5.78029229       0.12244856      -0.15025692       0.53348184       0.57849319      -0.61894368      -0.91105762
H       10.38419050     -11.59320423       6.32797130       0.09082629       0.21903590      -0.09644262      -0.40177790       0.37107554       0.13545979
C       10.55046885     -11.08221137       4.25437178      -0.55773884      -0.31215873      -0.89318881      -0.15344534       2.14331708       0.92978385
H       11.48956003     -11.57445500       4.28769674      -0.13479001       0.32148195       0.00942098       0.55456200      -1.30680147      -0.79788692
H        9.66368343     -11.66173082       4.09098954       0.04910049      -0.13750895       0.25703686      -0.15927970      -0.55970719      -0.42670224
H       10.63410667     -10.25446564       3.48937618       0.06323356      -0.19776420      -0.02067991      -0.29830638      -0.55056447       1.12774082
C       11.98897641     -10.30221083       6.11933119       0.57903877      -0.79736884       0.49823216       1.56402539       0.49350877      -0.80794876
O       12.93871906     -11.09698068       6.03110112      -0.62742135       0.28552923      -0.16992343      -1.30008876      -0.51129556       0.28379782
N       12.29164180      -9.00418036       6.36271372       0.53179098       0.90456979      -0.60725313      -1.39331476      -0.02319263       0.10491352
H       11.55608745      -8.29603218       6.38641728       0.27697684       0.18775968       0.22228588       0.25683761      -0.06410787      -0.18249728
C       13.56164682      -8.71461640       6.92312453       0.66965499      -0.78009073      -0.67422657       0.17265981       0.92101295       0.71755749
H       14.36349439      -9.13778785       6.32225927       0.26657962      -0.15127318       0.08008689      -0.07305067      -0.41609026       0.02386445
C       13.84511914      -7.21627197       6.96972984       0.33733994      -0.29579271      -0.18932451       0.02911983       0.01800111       1.19039473
H       13.79250635      -6.76885886       5.98342257      -0.03510341      -0.17366078      -0.13139118       0.56894243      -0.02891913      -0.23411529
H       13.16297747      -6.59285983       7.59641117       0.01902046      -0.25538663      -0.18774992       0.24044439      -0.77758237      -0.14344577
H       14.82797413      -7.27129389       7.47509593      -0.19887236       0.05851864       0.09285854      -0.14293346       1.01824037      -0.59420166
C       13.70856923      -9.28705652       8.35711021       0.30957878      -0.15306502       0.37797013       2.79432085      -0.16576635       0.28439053
O       14.84474689      -9.39655503       8.89332736       0.27460110      -0.15556233      -0.58275233      -1.31934983       0.28968416      -0.88414800
N       12.60575568      -9.63795314       8.98188500       0.27751973      -0.76512379      -0.55754634      -1.62155217      -0.54089365       0.14590773
H       11.73079595      -9.58889993       8.46339133       0.15594328      -0.04899011       0.12118408       0.12905788      -0.09916739       0.31557022
C       12.57064514     -10.37562054      10.23842950       0.36963102       1.15795501      -0.39327140       1.37457037       0.63189242      -0.28528275
H       13.23099568      -9.87687558      10.94041466       0.12621005      -0.19147454       0.33285853      -0.16557067       0.53954172       0.34142171
H       11.55107828     -10.37544900      10.58052250      -0.10168477      -0.15549878       0.16762567      -0.25642237      -0.44665456       0.19404908
H       13.09879336     -11.33496517      10.16638180      -0.12023636       0.05654242       0.10521225      -0.74583215      -0.27822993      -0.35183017
