112
Properties=species:S:1:pos:R:3:momenta:R:3:forces:R:3 energy=-496.832854589196 pbc="F F F"
H       -3.60024479       3.95503653       7.78065890      -0.24112614       0.41957901       0.31442865      -0.16695015      -0.18068251       0.06838085
C       -4.48890032       3.63841078       7.21412037       0.27356415      -0.87823920       0.32254414      -0.13068687       1.63007149       0.84822869
H       -5.03550155       4.57919298       7.02297037      -0.06272810      -0.23482892      -0.00376237       0.04892374      -0.31928904      -0.04458903
H       -5.10537159       2.96348623       7.81075323       0.09285788      -0.00229428       0.14255890       0.16951862       0.16426629      -0.11827081
C       -4.05599624       2.94484991       5.99685945      -0.39846417       0.23643296       0.09675665       0.47932018      -0.75706011      -0.55797343
O       -4.32015483       1.74031424       5.91630599       0.80249469      -0.61706525      -0.02482064       0.37689055      -0.05411587      -0.80467872
N       -3.25787028       3.60709870       5.07700713       0.80133963      -0.20166133      -0.02218060      -0.28642796      -0.54179732      -0.91311122
H       -3.26997012       4.62955536       5.08453491      -0.16962895       0.27613258      -0.09667646       0.11060737      -0.55117199       0.01206991
C       -2.98381464       2.95509716       3.71861614       0.17416757      -1.02285626       0.08598665      -0.53294784       0.14028243       0.19173304
H       -3.91642410       2.45601475       3.43758463       0.13985155      -0.12821974      -0.15413501       0.04939891      -0.24271392       0.10595244
C       -2.60170439       3.98455009       2.65839868       0.13631039      -0.35968084       0.28212826       0.01098855       1.48121532      -0.18135789
H       -2.43622232       3.64343440       1.60612044       0.20170827       0.05899802       0.26145886      -0.71633946      -0.27861935       1.03814293
H       -3.28183732       4.89251799       2.65728128       0.01099321      -0.16076720      -0.00372980       0.57330288      -1.11672982       0.00307810
H       -1.59637994       4.30472743       2.91941034      -0.06755370      -0.17707779       0.04779360       0.11357414       0.47160012       0.10232080
C       -1.84488901       1.94143108       3.76633009       0.06861417      -0.62261617       0.70905873       3.32693036      -1.01626096      -1.68952137
O       -0.89184732       1.98633183       2.88638442      -1.25833706      -0.14673697      -0.24612230      -2.53807576       0.17323814       2.16962360
N       -1.75257760       0.99167201       4.73779456       0.40949248      -1.08000738      -0.00616778      -2.11784731       0.82002817       0.53120664
H       -2.51116835       0.87990319       5.41358756      -0.30894181       0.02046698       0.05312309      -0.14483315       0.32486572      -0.39019884
C       -0.52001096       0.38956627       5.08643042      -0.06860347      -0.04800934       0.62238160       1.38195928       0.04352080       0.72927466
H        0.20071375       1.06159629       4.62964993      -0.29378317      -0.10039088      -0.02016559       0.49337301      -0.17047439      -0.28131318
C       -0.18025041       0.37746101       6.60734333       0.00334401       0.03221464       0.05659255      -0.86628220      -0.74146437      -0.91086415
H       -0.46075924       1.33872741       7.04203914       0.17135616       0.41004742       0.29827360       0.30105353      -0.05546410       0.06206229
H       -0.71320073      -0.45055263       7.12751403      -0.02334625      -0.06531213       0.22520588       0.41819729       0.56096209      -0.32050526
H        0.89781718       0.19659786       6.59796578       0.05814031       0.17017238       0.07338370      -0.10639653       0.10688799       0.63620555
C       -0.37112172      -1.00056285       4.48624800       0.28840091      -0.58214119      -0.03517935      -0.20894475      -0.05455637      -2.40100762
O       -0.65465073      -2.04990209       5.06173450       1.03555999       0.07814671      -0.52126710       0.11727942       0.29053912       0.29742676
N       -0.00476775      -0.98125117       3.11779143      -0.05132047       0.50546945       0.41582744      -0.37713692       1.13255341       1.83864517
H        0.25731048      -0.03127283       2.75408713      -0.43823690      -0.18147970       0.00712466      -0.37437921      -1.43794328       0.06971152
C        0.28020456      -2.24016686       2.48367112      -0.32631913      -0.00663226      -0.11894918       0.48485604      -2.15447413      -0.96492383
H       -0.47806985      -3.04398456       2.75137030       0.09724042      -0.05179860       0.02212675       0.45739132       1.30813149       0.01894433
C        0.46075377      -2.26739389       0.95306286       0.20542862       0.18506053       0.07246453      -0.96513504       0.85356298       0.12622831
H       -0.48953020      -2.22075672       0.45042908      -0.08506335      -0.07788680      -0.34172681      -0.69314734       0.33506027      -0.09641126
H        1.03175959      -1.39230489       0.64220899      -0.03698181      -0.18890286       0.07820002       0.31123435      -0.31198961      -0.18613156
H        0.88152284      -3.20796861       0.59464370       0.03924423       0.01359744       0.15286000       0.41147974       0.26150028       0.37499947
C        1.62382739      -2.78788875       2.98634057       0.03069592      -0.62921745      -0.11908097      -0.39701081      -0.24437868       1.09912811
O        2.64768156      -2.74222008       2.31370094      -0.49640697       0.27751532       0.54253059       1.10726431       0.24916277      -0.77498532
N        1.62029135      -3.36346098       4.19376539       0.28773583      -0.01054805      -0.07591658      -1.04677405      -0.08223389       1.59885693
H        0.72276184      -3.35059776       4.73820261      -0.27034796       0.18643456       0.11894775       1.05076662       0.11328579      -0.72831135
C        2.84073271      -3.75338417       4.93020517      -0.47779940      -0.56853735       0.04453784      -0.91549900      -0.11238395      -0.60362627
H        3.62956132      -3.10579415       4.63473195       0.14909264      -0.28493046      -0.08356483       0.68519635       0.99061222      -0.45436528
C        2.68267447      -3.72177555       6.42461778       0.87745026      -0.30753404      -0.25102953      -1.20352430      -1.18990607      -0.03514780
H        3.64492662      -4.14714789       6.69766706       0.03561436      -0.01678125      -0.03798057      -0.21838717      -0.07384381       1.03455292
H        2.48796701      -2.75157875       6.89300059      -0.07964254      -0.12477175      -0.00731801       0.22661646      -0.01766452      -0.41429158
H        1.81745906      -4.41712969       6.69079576      -0.01376408      -0.12096135       0.21714888       1.33259511       0.68551718       0.00376914
C        3.28280510      -5.14754003       4.44856627      -0.53228147      -0.02026153      -0.28890927      -0.83047711      -0.93418487       3.25636420
O        3.33960113      -6.11277416       5.26194257       0.37047590      -0.48603586      -0.04613123      -0.10154828       0.79520929      -0.78031471
N        3.49717668      -5.21807951       3.17660884       0.05350428       0.45900767       0.17387340       0.58030595       0.29498935      -2.56745525
H        3.30867631      -4.29367766       2.69661053       0.00855847       0.14229818       0.15237855       0.48482288      -1.03110276      -0.15174003
C        3.56754225      -6.48071218       2.40928197       0.32650456       0.00870274      -0.62276288      -0.90266474       0.12020508      -1.40448491
H        2.65123356      -7.04848866       2.74053984      -0.17918759       0.11064714       0.06248447       0.86993452       0.14156088      -0.39261067
C        3.47654538      -6.16329053       0.85666462      -0.20622492      -0.05439564       0.18625270      -0.73943756      -0.82962818       0.52918308
H        4.00162047      -5.29337551       0.52012031       0.16408176       0.01002873       0.26900423       1.17050189       0.43716503       0.34099135
H        3.85422738      -7.04750247       0.31484191       0.02205888      -0.09093007       0.07337911      -0.21715544       0.50680882       0.20196015
H        2.48222391      -5.89132654       0.47052767       0.02692345      -0.14664923      -0.00376330      -0.23550467      -0.61769409       0.63219268
C        4.84960528      -7.40828039       2.63151285      -0.11812803       0.63214302      -0.43599024      -1.07709659       2.48731294       0.76053452
O        5.47646554      -7.82247624       1.68428009      -1.10414261      -0.14303807       1.14228318       0.77290440      -1.29677603      -1.04069785
N        5.19407622      -7.47660884       3.91813905      -0.89270212       0.04664239      -0.61555643       1.35784200      -1.37707697      -1.04916855
H        4.50880237      -7.11332074       4.53203099       0.29552949      -0.19149819       0.07108136      -0.93419303       0.49133268       1.59948165
C        6.33614644      -8.24803247       4.39143539       0.02933697       0.36970004       0.89374485       0.23358337      -1.17018528      -1.65995618
H        7.05803736      -8.32348469       3.51293492      -0.15064407      -0.22000160      -0.03814505      -0.76048500       0.24411732       0.87497282
C        6.96346919      -7.62520492       5.58073715      -0.24549217      -0.23526291       1.35913449      -1.00198382       1.92872977       1.18916792
H        6.13963922      -7.44593768       6.33143989      -0.02272742      -0.24746552       0.06042337       0.84924678      -0.32694476      -0.43153234
H        7.68957596      -8.28078144       6.03057390       0.03079443      -0.22181285      -0.11673722       0.36804393      -0.04119890       0.12761437
H        7.35764071      -6.58730941       5.37039348      -0.00709153       0.36950213      -0.10861763      -0.10313494      -1.22259190      -0.00032065
C        5.94884382      -9.75835761       4.68469733      -1.52893001      -0.25372229       0.37679937       0.46630957       0.21049512       1.10941543
O        6.12575421     -10.25836114       5.81147791      -0.34770308       0.53812692      -0.54080328      -0.39268524       0.43321130      -1.44210450
N        5.49292657     -10.44104555       3.59312806       0.05131469       0.70676086      -0.23906386      -0.02823573       0.72803856      -0.13828212
H        5.62971033      -9.95010965       2.69095254      -0.25341475      -0.17994992       0.09700278      -0.31170609      -0.52624630       0.62188058
C        5.35221056     -11.88595431       3.61584480       0.23248744       0.51971932       0.00141808       1.12161370      -0.68453424       0.04072384
H        5.54327343     -12.19837254       4.66604096       0.41165107       0.23823578      -0.08067900      -0.41870787       0.27267036      -0.33633521
C        4.03855484     -12.42669308       3.02747382       0.90309169       0.47034829      -1.17881599       0.23855828       3.60813616       1.29599836
H        3.31307637     -11.78013033       3.56759330      -0.32923925       0.05520023       0.01051675      -0.26289512      -0.85095253      -0.50521701
H        4.07352468     -12.11136522       2.00709413      -0.04852399      -0.06563376       0.09793939      -0.43557036      -0.08572684      -0.89544915
H        3.87751773     -13.45172931       3.12062262      -0.09487886       0.10036451      -0.08175305      -0.10117776      -1.52341327       0.31216343
C        6.49107432     -12.52863174       2.84870093      -0.33502073      -0.00009724      -0.27949981       0.86389035      -1.64618014      -0.84330662
O        6.34231579     -13.68655863       2.41360055      -0.38566116       0.36712862      -0.81655711       0.49074538       1.36684274       0.28897422
N        7.66584390     -11.79153480       2.64568200      -1.21432078       0.51045903       0.38100657      -1.47889384       0.71333719       1.15066241
H        7.89641749     -11.19029668       3.45330397       0.07034045       0.23804116       0.03258087      -0.50328243       0.14491233      -0.51833121
C        8.87231099     -12.44418641       2.28784409      -0.11532068       0.45107895       0.20479456       1.11039336       0.14637908       1.76408020
H        8.65773864     -13.31357380       1.76899886      -0.05057609       0.08693498      -0.07027537      -0.61545061      -1.67834148      -1.33670809
C        9.86423420     -11.56477911       1.55619857       0.56977526       0.44668928      -1.55496310      -2.07054289       1.60219629       1.89787183
H        9.82794493     -10.55437818       2.03180308      -0.03092452      -0.03327630      -0.25351777       0.80112008      -0.82362209       0.08780497
H       10.77976502     -12.05238544       1.51773913       0.01373795       0.19314409      -0.11404469       1.89348401      -0.39744053      -0.07433188
H        9.47637474     -11.35049601       0.62129018       0.15973156      -0.02432725       0.03682935      -0.57883361       0.06853820      -2.28656012
C        9.52600661     -12.87083086       3.62491504      -0.80647209       1.36816362       0.50679929       1.91604485      -0.89844968      -0.39720734
O        9.73839973     -12.07396053       4.53416130       0.03535920       0.76311169      -0.45339693      -0.59684869      -0.03905406       0.18323919
N       10.08426127     -14.13300951       3.57278420       0.06009447       0.03480552       0.49935830      -1.05251006       0.62490420      -0.01566197
H        9.75698084     -14.71144690       2.80056230      -0.23999524       0.12580912       0.27173644       0.30334225      -0.22270459       0.42304476
C       10.71634198     -14.82741322       4.69414424       0.09708115       0.55584286       0.06414001      -0.00992662       1.33858439       0.81617887
H       11.39637141     -14.10557382       5.20657757       0.11287451       0.17767072      -0.11383412       0.02762822      -0.45181508      -0.72829273
C        9.71495458     -15.19540786       5.80731387      -0.74919458       0.22982203       0.16652234      -0.51856072      -1.09634793      -0.70535079
H       10.20556354     -15.56001988       6.72279889      -0.37411416       0.03721397       0.04428613      -0.02244577      -0.31671610      -0.48610820
H        9.23295937     -14.28818345       6.10922995      -0.16292521       0.10769966       0.02854086      -0.52501117       0.58285502       0.00811587
H        8.95668454     -15.92068306       5.38669019       0.18861433      -0.08506089      -0.05869380       0.74723398       0.63724128       0.74009833
C       11.39664860     -16.03148076       4.11138824       1.19298470       0.04353546      -0.76913106       0.45526012      -1.57954146      -0.86463331
O       10.92255105     -16.58796619       3.09357606      -0.95482145      -0.43474983      -0.34717617       0.74472454       0.55732799       1.07579428
N       12.49435544     -16.51394708       4.77586287       0.66033278      -0.73779655      -0.15814791       0.22143199       1.38959985       1.38801728
H       12.85495457     -16.07103934       5.68793540       0.01611719       0.06464941      -0.03501210      -0.84070069      -0.64055662      -1.84016323
C       13.32859273     -17.63162469       4.40142618       0.13170328      -0.22860361      -0.64211547       0.70445179      -0.09955783       0.05355238
H       12.76030659     -18.45910523       3.99413041       0.07333538       0.21396586      -0.01403626      -0.57255959       0.20871734      -0.59287904
C       14.49093185     -17.28561253       3.40249161       1.35977721      -0.55788427       0.68848563      -1.96492399      -0.49607280      -0.91504730
H       15.31245060     -16.73577222       3.83803194       0.04542724      -0.17668256       0.05673235      -0.14187337       0.63045248       0.05378624
H       14.89759213     -18.23725551       3.07896497       0.25893674      -0.05406648      -0.07176166       0.20531672      -0.30133654      -0.11642802
H       13.98488521     -16.84849831       2.46963744       0.30810454      -0.19505482       0.23417344       1.03690293      -0.14389983       1.40679900
C       13.86000583     -18.17948714       5.73538163       1.05616428       0.89698589      -0.68274167      -0.44278290      -0.25218142      -0.93754230
O       14.16833210     -17.41354880       6.62826904      -0.38860249       0.23239800       0.82530087       0.48779820       0.31441026       0.92299946
N       13.91506587     -19.53601887       5.80987731       0.77816603       0.17402087      -0.54439495      -0.03756013       0.51814086       1.34356611
H       13.33746986     -20.04901411       5.16125866       0.26136827      -0.12260476      -0.02121342       0.12641613       0.02595887      -0.08958773
C       14.18262534     -20.22872026       7.09587581       0.29267858      -0.60792317      -0.77535864       2.00363342       0.27007118      -1.36676765
H       13.44732780     -20.14824438       7.85529867       0.25469099      -0.21486986      -0.09174661      -1.21231959       0.08514723       0.36351269
H       14.32859985     -21.22863091       6.71285727      -0.21351881       0.06601649      -0.17330989       0.01491901      -0.63796756       0.80219870
H       15.12982336     -19.88150966       7.58597074      -0.06323159      -0.00534143       0.27598401      -0.66071087      -0.11720280      -0.84132091
