112
Properties=species:S:1:pos:R:3:momenta:R:3:forces:R:3 energy=-498.24248740466294 pbc="F F F"
H        4.54057701       1.88137367      -2.84631220      -0.15481324       0.18864818      -0.26812444      -0.53251631      -0.66168806       0.55215402
C        3.75570125       1.09286624      -2.68883114      -0.02678888      -0.96758187      -0.34683870       0.41618976      -0.56426419      -1.34633324
H        3.99759724       0.29057983      -3.41069699       0.10233025      -0.03830951       0.45022346      -0.36105811       0.58353657      -0.06709197
H        2.76954384       1.57747012      -2.94188854       0.10725196       0.20300701      -0.07465845       0.83849812      -0.66829438       0.44201775
C        3.81890444       0.38383285      -1.34569059      -0.07465295      -0.47356075      -0.83381743      -0.07173709       0.56371081      -0.36504603
O        4.27451145      -0.76828448      -1.15128507       0.26821658      -0.66805690      -0.48515037      -0.71504477       2.03811252      -0.25831413
N        3.31017660       1.20037249      -0.35912624       0.33952425      -0.55365292      -0.08512591       0.67971462      -2.08601443       0.47155399
H        3.04960944       2.13150620      -0.60580527       0.25848260       0.31321392       0.01261737      -0.02453302       0.46345085       0.12065474
C        3.62279360       0.77881166       0.99394682       0.12550990      -0.26559758       0.44674738      -0.77820978       1.23864178       1.48080596
H        4.66446915       0.49063236       1.01720931       0.00906445      -0.02953966      -0.27341303       0.40574887      -0.14712245       0.12862157
C        3.37616342       1.88221768       2.08043563       0.96836794       0.05046946      -0.54753186       1.82159213      -0.19933650      -1.51536607
H        2.46279007       2.39985580       1.94240018      -0.20613142      -0.37817941      -0.23095247      -1.11607243       0.38307294      -0.18647368
H        3.39474921       1.39848004       3.03048474       0.04074905      -0.27225764       0.08039258       0.07141661      -0.15985141       0.73845179
H        4.19886665       2.61146843       2.00057226      -0.06787646       0.29604518      -0.26662044      -0.29413140      -0.12139366       0.24881548
C        2.86753809      -0.43249255       1.49450176       0.56439137      -0.24279782       0.18474385      -2.05996645      -0.09847979      -3.17187983
O        3.20955780      -1.02312583       2.47833058      -0.77671818      -0.57249655      -0.29550890       0.82653236      -1.09515029       2.02920700
N        1.79951052      -0.83670681       0.69661802      -0.47991025      -0.80823265       0.13256417       1.65461215       1.80086765       1.00836454
H        1.57952094      -0.11158633       0.02243008       0.21319527      -0.47591837      -0.20285019      -0.46084400      -0.63390816      -0.24691693
C        1.06250568      -2.04666966       0.89159789      -0.71445579      -0.26011047      -0.32716616      -0.66186543       0.30086310       0.02909089
H        0.51325796      -2.06744048       1.84687601      -0.02677825      -0.09905800      -0.19623653       0.35785093       0.11136560       0.00881498
C        0.05118552      -2.18051330      -0.23343443      -1.23552719      -0.22854591      -0.00106087       1.64859214      -0.93105892      -1.93871759
H        0.67818682      -2.49715138      -1.19251522       0.07609962       0.00970777       0.24562942      -1.63934455       0.77964135       1.61733222
H       -0.61524219      -2.97356806       0.02886566       0.15217917       0.05279715      -0.03498373      -0.40942191      -0.71804625      -0.10322789
H       -0.55931982      -1.30107215      -0.41686001       0.14096954       0.02664599      -0.15228551       0.20090091       0.30609815      -0.01403227
C        1.97707347      -3.26453168       0.86227837      -0.62028696       0.07929209       0.14347483       0.24731672       0.88613473      -0.30771946
O        1.62982903      -4.31558843       1.38178747      -0.34482491      -0.88295461      -0.57060029      -0.22445633      -0.46285813       0.22845064
N        3.16696676      -3.09183290       0.22475585       0.92623028       0.29540246       1.13557022      -0.42640153      -1.26412610       0.13682856
H        3.40941496      -2.25093527      -0.29830475       0.24521017       0.08745412      -0.36001690      -0.05282255      -0.05377379       0.21249604
C        4.00593560      -4.30138470       0.10716802      -0.37675737      -0.48585787       1.04571863      -0.60330499       0.51526722      -0.06405008
H        3.34907329      -5.07956605      -0.24204303       0.03711231      -0.23765816       0.22084765      -0.37565560      -0.73084949       0.37750021
C        4.95071419      -4.04075759      -1.03143123       0.44864622      -0.76434684      -0.00999779       1.25824677      -1.40577972       0.10021642
H        5.48330835      -3.15184521      -0.82483408       0.04891136       0.33514559      -0.21057320       1.11040405       0.91651771       0.21461828
H        5.65001847      -4.90208567      -1.21718115      -0.03866142       0.07571509      -0.21687325      -0.62047564       0.87139464       0.24863244
H        4.40889769      -3.82030180      -1.93364597      -0.03313404       0.18871218       0.24089824      -0.45945305      -0.20661249      -0.44949453
C        4.55537961      -4.72430612       1.51467606       0.44813487      -1.06814534      -0.76576619      -1.05738600       1.82318164      -0.60252530
O        5.01352804      -5.83057574       1.77045847      -0.19292605       0.88337795       0.26968948       0.25752604      -0.18839549      -0.00912731
N        4.34824745      -3.73572956       2.42995506      -0.20874869      -0.14332813      -1.10712693       0.48834586       0.74306192       1.00532301
H        3.92928468      -2.80117819       2.25746311       0.11212824       0.11784671       0.24116932       0.36465943      -1.05079667      -0.61831352
C        4.83734186      -3.81708951       3.80769968      -0.47774272       0.64015092       0.52267586       0.63136337       1.26308285      -0.44978084
H        5.94168465      -3.85173382       3.79474493       0.11138266      -0.17879700       0.00775085      -0.37727184      -0.42322631       0.13222730
C        4.43193548      -2.56309768       4.63629898       0.61522847      -1.57354231       0.51483519      -0.73887261      -0.98677484       0.35295363
H        3.34885877      -2.40344143       4.56031677       0.07563746       0.10186552       0.13644649       0.26873197       0.18817162      -0.17559739
H        4.60121600      -2.80910806       5.67965070       0.06107575       0.03233811       0.12430143       0.21013828      -0.11053820       0.23812842
H        4.96894320      -1.65087689       4.44589205       0.24846037      -0.00780444       0.23769610       0.20670906       0.22405772      -0.57917121
C        4.30578741      -4.99334001       4.53307266       0.19260763       0.22395313       0.13825001      -1.65298146      -1.98996879       1.00830738
O        4.94371773      -5.60435675       5.37481146       0.17269935       0.10111366       0.66453164       1.08132596      -0.45052984       0.46955427
N        2.98469286      -5.35302375       4.30601004       0.60041001      -1.57504739      -0.48905650       1.31876297      -0.55220617       0.81879079
H        2.52564878      -4.67973871       3.74479834      -0.15689429       0.04713540      -0.20550329      -1.18234091       0.07637615      -0.88710173
C        2.27614272      -6.57334521       4.82966474      -0.18919174       0.60989566       0.40124297       1.03560598       0.57254899      -0.88313241
H        2.14294840      -6.64011080       5.90450905       0.03002470      -0.23288771      -0.19516302       0.45217875       0.61704770       0.40273716
C        0.87699247      -6.55834920       4.22855160      -0.21699256       0.88406717       0.90633556       0.12929089      -1.94952155       1.94639089
H        0.90620522      -6.26552533       3.21905453      -0.10331320      -0.05017674      -0.05624428      -0.20311583       0.19992875      -1.36993261
H        0.59992935      -7.63785951       4.37638639       0.23061524      -0.03126278      -0.21841021      -0.60019193       1.04519631      -0.51331498
H        0.22420314      -5.92143379       4.83676085      -0.05130390      -0.14358253      -0.29758042       0.04620155      -0.10122883      -0.30915808
C        3.01829965      -7.92969848       4.52903774       0.69170056      -0.16019737      -0.10824612       0.56079070      -0.03926886      -0.65505473
O        2.86392110      -8.94189487       5.23469163      -0.94099120      -0.64047819      -0.57768567      -0.59195055       0.79432659       0.19903313
N        3.84776792      -7.99260829       3.45413698      -0.48128920       0.73460672      -0.84080080      -0.67610236       0.06198972       0.01178778
H        3.96515884      -7.12356488       2.88944328      -0.20877563       0.11246548      -0.13539712       0.33589170      -1.08225022       0.21284564
C        4.46417820      -9.31165967       3.12074779      -0.73238240      -0.20585993       0.00361126       1.48347485       1.47263409      -0.06778888
H        3.75593337     -10.10827196       3.00661470       0.12475250      -0.07700735      -0.12516514      -0.80426512      -0.20852341       0.27342904
C        5.23055462      -9.17518125       1.77501856       0.30538053       0.75033163       0.16038464      -0.65765042       1.42858056       1.11629124
H        5.81105970      -8.23402946       1.87092096      -0.11994798       0.34679413      -0.07762691      -0.43335109      -0.39581213      -0.61468950
H        5.93102217      -9.96562455       1.62746445      -0.13700651       0.24341076      -0.39078217       0.17223513      -0.79279205      -0.11363777
H        4.44417926      -9.14071444       1.01425506      -0.47529454       0.03789472      -0.32716122       0.58143546       0.21045422      -0.27431414
C        5.46856614      -9.79087404       4.18750202      -0.45557236      -0.52172371      -0.81040666      -0.85257812      -0.33554606      -2.08867277
O        5.90675147     -10.93834876       4.03910095      -0.61675256       1.11762885       0.06538858       0.12628539      -0.29537886       0.38994944
N        5.88519797      -8.96688487       5.12887449      -0.41935171       0.54395096       0.44149009       1.94725362      -2.10025027       0.51317054
H        5.54829808      -8.07453305       5.28159320      -0.21006148       0.30162574      -0.03597367      -1.01366048       2.16574074      -0.06096629
C        6.72315681      -9.51536913       6.18884720       0.90287435      -0.36886430      -0.04233560       0.82760074       1.77225477       0.14526915
H        7.69643503      -9.96006103       5.88680208      -0.03818626      -0.26879936      -0.32810858      -0.77724878       0.08654365      -0.53111868
C        7.09737905      -8.32895487       7.12862535       1.06725235       0.28742231       0.27726518      -0.31544151      -0.35303631       0.27812977
H        7.45129154      -8.76310072       8.04631796      -0.31631556      -0.17325143      -0.21603569      -0.05549094      -0.12799998       0.63184732
H        7.85858607      -7.59754090       6.85793717      -0.05241829       0.08473985      -0.15981892       0.18666844      -0.47407220      -0.90819423
H        6.22027455      -7.72239190       7.30613960       0.25396187       0.18307547       0.13507232      -0.45502388       0.02933413       0.36935048
C        5.99736651     -10.58751490       6.94059793       0.77531040      -0.30074137      -0.35741082      -2.34661578       0.05340899       0.58410025
O        6.59791104     -11.27549220       7.75719543      -0.55048226       0.30475257       1.49399316       0.84987564      -0.54384974       0.33246961
N        4.62980542     -10.77406780       6.77665876      -0.61593348       0.82681336       0.00802024       2.34256489      -0.82159182       0.71930161
H        4.11561716     -10.14812677       6.22385023       0.06027596      -0.02589473      -0.10680564      -1.08020317       0.81323842      -1.03899723
C        4.04477197     -11.99183374       7.36171012      -0.58094456      -0.36773078       0.20238197      -0.32937117       0.50178530      -4.35001114
H        4.24113638     -11.95978234       8.33966309      -0.02747936       0.53945216       0.09410715       0.14482070       0.31310081       4.14203420
C        2.52424468     -12.14845242       7.07712713      -0.13480185       0.10749496       0.42572931       0.74290839       0.02956261       0.28155526
H        2.04080846     -11.23721379       7.45848340       0.11951824      -0.18505467      -0.18822300      -0.12445594      -0.42608282       0.01082775
H        2.19158629     -12.29880861       6.02293866       0.35532997       0.15568912      -0.28923604       0.70620769       0.05945957       0.67165268
H        2.28675680     -13.03261265       7.68566289      -0.28683918       0.00815629       0.12553515      -0.54310953       0.31350500      -0.24696071
C        4.88456242     -13.21657261       6.99065152      -0.60251067       0.85620010       0.65118597      -0.81545168      -0.48645772       1.08719665
O        5.04757784     -14.08841144       7.87989872      -0.26725099       0.53062435      -1.70058659      -0.10306232       0.62613026      -1.14764204
N        5.33576421     -13.33520792       5.73909844       0.43934612       0.25302318       0.06456380       1.43553027      -1.65284084      -0.12992096
H        5.41385056     -12.61722541       5.03456252       0.20123494       0.47639000       0.06106578      -0.39988392       0.77110941       0.23063787
C        6.14671244     -14.54720099       5.41692791      -1.14295383       0.59201643       0.80705548      -1.48374317       0.03343041       0.13876006
H        5.56683189     -15.38128191       5.90004405       0.04280597      -0.01374840      -0.24905249       0.48904523       0.37646154      -0.79503382
C        6.25374246     -14.63758755       3.84781025      -0.28738570      -0.08596290      -0.06361677       0.77077208      -1.35341307       1.90522111
H        6.82380267     -13.75484643       3.52306949      -0.00754252       0.13471281      -0.03915768      -0.16817397      -0.50503896      -0.34308694
H        6.77288515     -15.61803828       3.71523291       0.08683542      -0.00439021       0.04650158       0.09790742       1.02434577      -0.42716970
H        5.27899151     -14.75108962       3.37397739      -0.47279148      -0.03932398      -0.13083264      -0.05236882       0.41943930       0.14413275
C        7.51523689     -14.62663528       6.13185244      -0.38998553       0.72971602       1.01786771       1.07747646       0.45482711      -1.46098289
O        8.31108407     -15.53283535       5.86750797       0.74193203       0.09418744       0.30595360      -0.79341800      -0.70339327       0.02814914
N        7.90126953     -13.58713085       6.89099840       0.01479492       0.52516761      -0.01962698      -1.13499991       1.14669736      -0.62999186
H        7.31888782     -12.73711306       6.89696447       0.09535544       0.30364709      -0.17134777       0.38614861      -0.57833667       0.40680036
C        9.17344236     -13.55698270       7.53347092       0.56628465      -0.59341360       0.16199079       1.20535481      -1.40074193      -0.45650208
H        9.67027815     -14.52194367       7.14131166      -0.19651705       0.11332065      -0.15265352      -0.51012096       1.28040089       0.71508094
C       10.08183641     -12.35684705       7.15853185       0.50847918       0.82920462       0.81836263       0.47457468      -2.06363615      -0.64260296
H       10.81059930     -12.18459275       7.94285500       0.12709796      -0.07055476      -0.08200655       0.28964328      -0.33490414      -0.01050573
H       10.55925440     -12.60908614       6.17195174      -0.01211194       0.05313131      -0.05936961      -0.30634186       0.56462558       0.94396378
H        9.51799797     -11.48032707       7.09201400      -0.18177690      -0.08977002      -0.20135713      -1.06696025       1.47983001      -0.34372878
C        9.03066657     -13.75352396       9.03087232      -0.00670081      -0.96265269       0.24290625       2.74415835       1.16151071       0.08119121
O       10.03818339     -13.59294238       9.75104593       1.07319707       0.76612134       0.44224703      -0.48444877      -0.31512427      -0.13390429
N        7.85736843     -14.05209456       9.51330371      -0.07645188      -0.61566569       1.06876570      -1.64097210      -0.47805680       0.27999261
H        7.04957607     -14.07469479       8.91209050       0.03643339      -0.00756865       0.17092009      -0.10219356      -0.04507421      -0.32825739
C        7.61923443     -14.22573876      10.90940665       1.05285495       0.67079267      -0.09370982      -0.02833256      -0.60358508       1.46823106
H        8.08729346     -13.41663392      11.50349145       0.38303245      -0.00425242      -0.33121728      -0.42510994      -0.03880767      -0.40139392
H        6.50064027     -14.24220725      11.03615821      -0.03408870      -0.11745145      -0.14082627       1.23387834      -0.17691346       0.25162865
H        8.14630705     -15.14646597      11.33595737      -0.14356340       0.15108472       0.08109998      -0.96938293       0.78851705      -0.70012300
