112
Properties=species:S:1:pos:R:3:momenta:R:3:forces:R:3 energy=-496.86920927707877 pbc="F F F"
H       -1.91529005       3.97126264       3.30290080       0.01965014       0.15686013       0.21006188      -0.10516091      -0.17556382      -0.70134316
C       -1.57006658       3.53165337       4.22080984       0.04168084      -0.51075690      -0.51584001      -0.64819011       0.27084234       1.22001220
H       -2.09083687       2.55420310       4.39369325      -0.03458271      -0.14206836       0.14836935       0.80016478       0.63828934      -0.35226997
H       -1.98111017       4.22590666       4.99450252       0.06777051       0.15076296       0.33079858       0.55196793      -0.49861414      -0.20800014
C       -0.05504784       3.47714544       4.17882645      -0.73015660       1.14060674       0.39202820       1.61481689      -0.07463088      -0.69597968
O        0.60812562       3.03122985       3.23768832      -0.11467101      -0.58830727       0.21699464      -0.84768007      -0.45957914      -0.10352170
N        0.65793767       4.02208514       5.20923762       0.52729907      -0.33428915       1.29059163      -0.95049920       0.31262334       1.32890369
H        0.11011058       4.50282771       5.91244122       0.12019110       0.14918597       0.09159446       0.24496721      -0.09241332       0.11201509
C        2.12454982       4.00215062       5.39506799       0.30777157       0.60798985      -0.05737090      -1.74549165      -1.03447435       0.47500047
H        2.58014055       4.62682693       4.62338602      -0.12532205       0.13627140      -0.14653626       0.29273674      -0.78810094      -0.28026045
C        2.44325051       4.72096469       6.70564774      -0.30828008      -0.83082593      -0.23046978       1.12776580       0.57509583       0.54930220
H        2.00927023       4.45849286       7.70006416      -0.06316504      -0.14507200      -0.05062231      -0.69331714      -0.09627710      -1.16957179
H        3.51514002       4.58649205       6.96633414       0.03523962      -0.02033560      -0.02319449      -0.32169998       0.37514236      -0.71336653
H        2.25787547       5.76640142       6.40316127      -0.05198196       0.08245034      -0.13426053       0.16721383      -0.09966991       1.00304969
C        2.69933379       2.55865488       5.44126179      -0.41282427      -0.83358348       0.47694611       2.76058879       1.29890428      -0.81985760
O        3.86761380       2.40629155       5.02964589       0.49864924      -0.95314675       0.07074292      -0.08395696       0.22360953      -0.39108694
N        2.15388142       1.58901236       6.14326895       0.26859821       0.56080774       0.15523334      -0.83985519      -0.42431441       0.63242867
H        1.22801081       1.71063191       6.43221874      -0.02124115      -0.19698676       0.06829625      -1.65239907       0.23118147       0.47647247
C        2.81118668       0.40638351       6.68829064      -0.20390941       0.15733375      -0.67460986       0.78367041      -0.79550186      -0.80823750
H        3.89257369       0.68701798       6.80983111       0.12329047      -0.05629582       0.10586996      -0.88769410      -0.34507157      -0.00446638
C        2.12173842       0.02105077       7.96351235      -0.50396680       0.74377170       0.10771611      -0.82803188      -0.61408685       0.76481939
H        1.03718031      -0.08827442       7.76425633      -0.12030784       0.15812969       0.02466267       0.40994922      -0.35510268      -0.01079591
H        2.47502300      -0.91734428       8.47602376      -0.09303050      -0.23141276      -0.07647555      -0.17050573       0.90526179      -0.84471730
H        2.15491541       0.83211455       8.68670185      -0.17039162       0.14582392      -0.24127510       0.34532452       0.15420047       0.18193216
C        2.74949578      -0.75548062       5.56686643      -0.11001260      -0.42938833      -0.86885227       2.56211957       4.29003830       0.91042400
O        2.11823436      -1.75259378       5.57878545      -0.47312184       0.72888610       0.22347713      -2.11705938      -2.89020313       0.53322342
N        3.60549782      -0.38394750       4.58444821       0.35447395       0.15084915      -1.11721186       0.73938923       1.50030513      -0.91611093
H        3.93027563       0.63736254       4.57121663      -0.05807709      -0.37827416      -0.03735159      -0.41934740      -1.41631407       0.25082763
C        3.51700561      -1.06515502       3.31486289      -0.41761892      -0.56789745       0.49194272      -2.15998964      -0.09506095       0.30571964
H        2.52732666      -1.58561527       3.34260816       0.09603774       0.11997187      -0.06284933       0.47738237      -0.02964015       0.25252186
C        3.38526505      -0.20959245       2.07310989       0.32455557      -0.84662234      -0.13295111       1.99830718       0.65866152      -0.85618209
H        2.68166471       0.63120186       2.14180071       0.09258813       0.33212650       0.27217372      -0.09705329      -0.53030446       0.22934602
H        4.39418210       0.25936013       1.84128466       0.19326715      -0.23299815      -0.45028173      -1.02412485      -0.46026867       0.06235809
H        3.14989858      -0.90899179       1.24667075       0.25400590      -0.05946765      -0.21201023       0.04312694       0.63745896       0.33496639
C        4.44630408      -2.21031440       3.15659839       0.06193006      -0.43753737       0.20267792       0.69650466      -1.49297147       0.19593025
O        4.49971760      -2.81083627       2.10094518       1.06461247       0.69233652      -0.90968185       0.24022259      -0.36589637      -1.40719699
N        5.09408598      -2.72775461       4.25265318       0.62481907      -0.22890870       0.80963045      -0.29003582       1.14418591       0.12395646
H        5.02346275      -2.12576736       5.06526098      -0.13743571      -0.08015086      -0.01352805       0.29707084      -0.18478417       0.09077166
C        6.20346477      -3.68181546       4.18871340       0.68146189      -0.31509743       0.57583221      -1.87424213       0.60405692       1.87205725
H        6.59520816      -3.71849192       3.22479913      -0.07572278      -0.20794924       0.29850880       0.23222500      -0.21424537      -2.02726368
C        7.33071038      -3.20950086       5.08271036       0.14882345       0.85482596       0.08465361       0.36098980      -0.78698815       0.54925725
H        6.99037066      -2.95359409       6.07823585       0.02948748      -0.09836968       0.17873251      -0.31523334      -0.25563159       0.43904005
H        7.94599615      -4.11366578       5.14671906      -0.06228395      -0.00298016       0.21925872       0.54684112       0.51660685       0.26967577
H        7.88804086      -2.31629434       4.77721452      -0.21800400       0.21731359      -0.01217121      -0.16787793      -0.42252375      -0.63913915
C        5.73358462      -5.12478906       4.57321467      -0.20892030       0.03214543      -0.15887785      -0.33146262      -0.26900412       0.20252569
O        6.57782709      -6.01101077       4.71411925      -0.22457360      -0.58259686       0.16201504      -0.17255803       0.19176286       0.04491016
N        4.37335826      -5.40341437       4.72166233      -0.12439991      -0.34902043      -0.46371736       2.04640177      -1.33080229      -0.08240658
H        3.74247260      -4.64846363       4.75882457       0.12997478       0.15097029      -0.05679792      -0.77046744       0.99418575      -0.05288511
C        3.94703151      -6.71241190       5.33291704       0.03340415       0.97944001       1.31842162       0.59297526       2.22140691       1.17538633
H        4.50139453      -6.82305341       6.26566667      -0.11907957      -0.00043662       0.08241876       0.33302570      -0.01080415       0.06600570
C        2.48725904      -6.59165492       5.71413298      -0.28415764       0.85059652       0.00614522      -0.59359910      -0.27563584       0.73251926
H        1.92238986      -6.71019671       4.82251394      -0.22965960       0.00588268      -0.24424019      -0.90879882       0.06500214      -0.82168824
H        2.16059268      -7.39404205       6.40039744      -0.26914733       0.10856793      -0.01513796       0.40750645       0.24266464      -0.32592077
H        2.20085601      -5.62814168       6.19299195       0.13685219      -0.33811189       0.21357199       0.54445068      -0.51747200      -0.34267937
C        4.30465061      -7.92966936       4.55310316       1.27924644       0.18785536       0.07789165       0.27918361      -1.17348638      -0.37533810
O        4.29986737      -9.03996824       5.12241876      -0.53090449       0.84698520      -0.76670566      -0.03312654       0.59921074      -0.54899783
N        4.69234230      -7.73754813       3.27312022       0.26248338      -1.27321685      -0.88920585      -1.14663130       0.62193571      -0.35824479
H        4.59587798      -6.79638982       2.90529742      -0.55251336      -0.07949403      -0.07377314       0.08523689      -0.05430537       0.29626010
C        4.82299928      -8.77176881       2.26110352      -0.10993191      -0.23001769       0.26716952       1.55679796       0.68787296       0.14098834
H        4.10692901      -9.54287350       2.50063977      -0.06030609      -0.08199843      -0.16566744      -0.31481972      -0.44992894      -0.16040668
C        4.64360596      -8.17720550       0.85481499      -0.58561512      -0.41384092      -0.26054405      -1.56942000       0.55806456       1.08334114
H        5.38631811      -7.44636546       0.57100830      -0.25353644      -0.05099605       0.02085897       0.66617792      -0.09219498       0.07230598
H        4.56349285      -8.96650042       0.12590637       0.05825743      -0.11615854       0.23601871       0.02457881      -0.11545697      -0.25475214
H        3.70504155      -7.58018173       0.90887988       0.02026717       0.27632896      -0.03082057       0.23252851      -0.55118606      -0.40349872
C        6.22268147      -9.42107486       2.35681501       0.49315280      -0.04891777      -0.54251443      -2.00841623       1.22108420       1.13901803
O        6.49986917     -10.22310583       1.49433294       0.10667685       1.39567348       0.59609685       1.30557512      -0.79985844      -0.21491801
N        6.93364882      -9.06870972       3.47345425      -0.11368518       0.47618736       0.59943217       2.03505229      -2.14001592      -1.95629113
H        6.64623631      -8.46664568       4.19726751      -0.01710647      -0.11150594       0.00576740      -0.77436583       0.99200676       0.36157735
C        8.11989502      -9.88817733       3.79055040      -0.56538268      -0.51652880       0.25778997      -1.10160661      -0.01711931       1.50665663
H        8.82908558     -10.01124708       2.97960415       0.25573739      -0.12050455      -0.18437532      -0.00598530       0.42758829      -0.23118342
C        8.71280840      -9.32807274       5.11552680       0.40115529      -0.31228179       0.25653484      -2.22031841      -1.11966411      -0.12413831
H        9.64560559      -9.72515146       5.34573239      -0.06645204       0.42714754       0.25906455       1.95251729      -0.44090038      -0.01649841
H        8.67398012      -8.26512942       5.15640386      -0.03555465      -0.06986172       0.09212050       0.21162520       0.89355615      -0.06283300
H        8.08368997      -9.74171894       5.93275294       0.10427498       0.06226716       0.11746484       0.04580961       0.56959808      -0.27927172
C        7.64492790     -11.31170073       4.11116810      -0.42222853      -0.74978374       0.21915824       0.04548227      -0.02694528      -0.82506492
O        8.35131158     -12.26832746       3.80863691       0.59504949       0.03789372      -0.75441126       1.54596397      -0.20735648      -0.32736140
N        6.47811528     -11.56407251       4.73691299      -0.06588728       0.07920423      -0.11935625      -0.38329999       0.74149924       0.34933547
H        5.86835558     -10.74264365       5.01679825      -0.10949798      -0.08886576      -0.24891119       0.56307280      -1.67566923      -0.18797335
C        6.44677646     -12.94828575       5.30158842       0.18267151       0.52382335      -1.23266833      -1.50115522       0.42521180       1.77888800
H        7.50965309     -13.16458818       5.53271027       0.11300181       0.17481025      -0.08393369      -0.70149980      -0.09427012       0.09200322
C        5.52975746     -12.93387381       6.57511550      -0.17973522      -1.26310668       0.56731447       0.59358974      -0.91040360      -0.70519263
H        5.98482583     -12.41031016       7.40243944       0.16440820       0.17678705      -0.12964876       0.00560681       0.51645040       0.07699279
H        4.53447753     -12.60206152       6.32238992      -0.16315769       0.10793467       0.13490431      -0.15818578       0.65977724      -0.10015897
H        5.32045867     -13.94642349       6.92488537      -0.42746932       0.01881788       0.03692382       0.41806716      -0.18344253      -0.11900328
C        5.90909024     -14.06315109       4.37396077      -0.04525527       0.43551270      -0.78620769      -0.97033382      -0.88850310      -1.16090446
O        4.74591047     -14.52528552       4.43717883      -0.60447310       0.88677995      -0.49840784       1.09911806       0.63480498       0.06118908
N        6.82587733     -14.54553913       3.49129557      -1.14998606      -0.39443745       0.17806331       2.21424040       1.81155711       0.96663779
H        7.77052366     -14.05235807       3.63735399       0.06273549      -0.00483232      -0.21703393      -1.69101876      -0.87570168      -0.90906794
C        6.55749535     -15.37375486       2.32463985       0.04991242      -0.88037781       1.41930205       3.17390457       0.17967383       0.05795528
H        5.53336443     -15.41809737       2.28807539      -0.20744486      -0.20570325      -0.13443647      -2.67184504       0.13239049      -0.56390079
C        7.24872368     -14.91950869       1.01410540      -0.28948554      -0.12314127      -0.08174476      -1.23603695      -0.76930345       0.10954612
H        8.26766293     -15.32567551       0.99014036       0.08387049       0.33864381      -0.00841902      -0.24509925       0.41533002      -0.11025776
H        6.64807211     -15.38378251       0.20326360       0.15163094       0.06570658      -0.04081849       0.58167488      -0.04369124       0.25798933
H        7.15651865     -13.86091105       0.81616752       0.10191945      -0.10641458      -0.13959191       0.33209741       0.38424460       0.34658696
C        7.00636594     -16.82701214       2.63212261       0.20940749      -0.01434213       1.17519757      -1.61105664       1.91239235      -0.05545248
O        7.90889358     -17.40152729       2.06561247      -0.16434879       1.00469843       0.24972269       1.34115968      -1.00570631      -0.56325597
N        6.19946531     -17.34154021       3.55103465       0.65390366       0.06399241      -0.06096831      -0.33349402      -1.84739543       0.90795395
H        5.38079797     -16.81983572       3.87215569      -0.02911199      -0.03608090      -0.11275387       0.41035979      -0.12823721       0.00783699
C        6.41122150     -18.72869932       4.03617339       0.29916616       0.03958289      -0.49975300       1.36623373       0.34168818      -0.09588672
H        7.50781018     -18.96943998       3.89476216       0.11695083      -0.23042281       0.04539792      -1.00255249       0.69407800       0.19076012
C        6.05229096     -18.83772874       5.49158496       0.57623494      -0.60605115      -0.75580787      -1.76778582       0.84276664       0.51536639
H        6.27365057     -17.96880627       6.11905327       0.08896855       0.04200682       0.12117404      -0.04215786       0.53887154      -0.68793939
H        4.97419853     -19.05911749       5.63150958       0.06307099      -0.05875670       0.06448232       0.51628685       0.05979204      -0.19046874
H        6.59482748     -19.55331938       6.02755972      -0.04120528       0.24132554      -0.19511068       0.80704770      -1.77238442       0.30558963
C        5.70861756     -19.75779566       3.13120726       0.53748426       0.09482994       0.10774256      -1.21006307      -0.60045252       0.91651595
O        4.64207065     -20.30479898       3.45144736       0.06963557       0.77955497       0.14137174       0.70455187       0.26722418      -0.29847983
N        6.42663438     -20.03223944       2.03813996      -1.04207583       0.18382675       0.29349022       1.80559697       0.30100891      -1.69106516
H        7.18019433     -19.34831417       1.79896325       0.10270909       0.18866870      -0.08944198      -0.68173867      -0.72285415       0.55217398
C        6.17701823     -21.05386670       1.00999503       0.36909964      -1.00605624      -0.11923011      -0.17378451      -0.77164393       1.92955717
H        7.00967334     -21.79717501       0.89559679      -0.16604827       0.10065123      -0.18236455      -0.47388719       0.92745332       0.13093850
H        5.29314426     -21.60763859       1.32291208       0.16578293       0.29281491       0.05878983      -0.04900687      -0.08486926       0.10493101
H        5.92289251     -20.57953236       0.10911605      -0.01085508       0.22836538      -0.11766986      -0.04181971       0.55627953      -1.49150022
