972
Lattice="15.1 0.0 0.0 0.0 17.44 0.0 0.0 0.0 100.0" Properties=species:S:1:pos:R:3:tags:I:1:momenta:R:3:masses:R:1:forces:R:3:charge:R:1 Built=T with=T Packmol=T energy=-3333.2092293874475 free_energy=-3333.2092293874475 stress="0.000994548890645872 5.986045835673221e-05 3.276941492581688e-05 5.986045835673221e-05 0.0011839313914492823 0.0003740828945753378 3.276941492581688e-05 0.0003740828945753378 0.00035131704631299106" pbc="T T T"
O        6.75527003       7.70573684      31.01601963        0      -0.14623871      -0.58652966       0.24456250      15.99900000      -0.11093280      -0.37454116      -0.23975135      -1.25003564
H        6.99719084       7.13217008      30.27387384        0      -0.32865409      -0.67715943      -0.03646543       2.01400000       0.23376776      -0.01367827       0.34371181       0.56409091
H        7.49872030       7.66886556      31.66081474        0      -0.22280808      -0.23456425      -0.37287242       2.01400000       0.07751118       0.36079742      -0.10350550       0.65288317
O       12.50962114       3.71425855      21.86975932        0       1.76400601      -1.27650471      -0.36363037      15.99900000       1.16384818       0.27691172       0.35367973      -1.23553443
H       13.23838513       4.03266520      22.48580354        0       0.48897141      -0.34097282       0.23025986       2.01400000      -0.78096489      -0.37137399      -0.58321995       0.62226510
H       11.81576030       3.27344933      22.37407512        0      -0.21173510       0.11889333       0.65867858       2.01400000      -0.20356521       0.01960741       0.46571367       0.61153567
O       14.79726123      13.28946580      31.34177489        0      -0.41832832      -0.57325702      -0.42686783      15.99900000      -0.38696895       0.62215279       0.04662428      -1.29479194
H       14.71271019      13.12750244      32.30579377        0       0.01834435       0.22303684       0.27910694       2.01400000       0.13608468      -0.87417767      -0.70439132       0.60542488
H       14.98776183      12.46240148      30.79618830        0      -0.26846250      -0.09469654      -0.37934653       2.01400000       0.33398799       0.53861794       0.89649832       0.68808109
O        0.06286863       5.27969720      12.21579918        0       0.53925464      -0.06424616       0.80280832      15.99900000      -0.51430216       0.91340264      -0.25394017      -1.29709423
H       14.68695576       6.16690384      12.20446262        0       0.16478553      -0.30836717      -0.21872972       2.01400000       0.13949715      -0.92484765      -0.14718310       0.58936018
H       14.74582354       4.69772900      12.91153821        0       0.18642463      -0.33273652       0.02739601       2.01400000       0.35506718      -0.13724921       0.08599114       0.67588907
O       10.97861676      17.09751159       9.08065428        0       0.48952923      -0.57002467       0.38236548      15.99900000      -1.79489967      -0.23013810      -1.60967565      -1.25263572
H       10.34831998      17.21985976       8.29242652        0       0.04284734      -0.34772004       0.30079714       2.01400000       1.50046824       0.09754926       1.62605842       0.59646380
H       10.70738441      16.20198981       9.35780738        0       0.33159591      -0.17993041      -0.09642721       2.01400000       0.27945210      -0.10682177       0.29712068       0.60101646
O       10.92878193      13.15174881      33.36514551        0       0.58237824      -0.29363094      -0.05730218      15.99900000       0.53260598      -0.48563387      -0.85211741      -1.24833322
H       11.53524440      13.50156011      32.62320767        0      -0.15603523      -0.25592557      -0.37171127       2.01400000      -0.97751290       0.19289375       0.75188966       0.64246607
H       10.62629180      13.93347490      33.84447127        0       0.06490477       0.36313304       0.68028875       2.01400000       0.05656351       0.67147533       0.05556235       0.58531648
O        4.91216319      15.21100128      22.94606122        0       0.17712868      -0.30514528      -0.91323426      15.99900000       0.20909477       0.11238709       2.06870720      -1.21488249
H        4.55530993      16.10146262      23.03068883        0       0.01924681      -0.23322313      -0.31307598       2.01400000      -0.31874705       0.51351811      -0.51040218       0.57895511
H        4.89923773      14.92608810      23.92433258        0      -0.08429928      -0.06511429       0.15835218       2.01400000       0.04740365      -0.47950787      -1.45349358       0.62108594
O        8.88622646       0.71050161      15.08565821        0      -0.61821140      -0.92814660       1.17382637      15.99900000       0.09604558      -0.95197374       0.67473349      -1.26060283
H        7.92047605       0.57958054      15.14047838        0      -0.35055387       0.11000725       0.01442066       2.01400000      -0.26422304       0.19329718      -0.18849971       0.66491538
H        9.00480594       1.58877065      14.74733856        0       0.22768643       0.32603541       0.10731618       2.01400000       0.04973116       0.65942702      -0.36473333       0.57857275
O       10.71651955       7.28760814      25.57552705        0      -0.07365036       1.44770724      -1.70990187      15.99900000       1.84812866       0.33611506      -0.91685530      -1.24345326
H       11.63385646       7.46947363      25.19191121        0       0.25304761      -0.68162643      -0.26559387       2.01400000      -0.70172080      -0.92319184       0.33949498       0.63003027
H       10.44623878       8.20423187      25.71210171        0       0.45645502      -0.05991606      -0.24744123       2.01400000      -0.80217745       0.92312713       0.28389885       0.62144798
O       14.75258254      13.21234692      21.21854540        0       1.54695731      -0.21945417      -0.05445641      15.99900000       0.75236210      -0.60521631       0.08158498      -1.23717177
H        0.59270818      13.43188851      21.16789844        0      -0.12388346       0.06664583       0.01255592       2.01400000       0.91405519      -0.86739050      -0.51879751       0.62503499
H       14.49022821      14.05635970      21.58457094        0       0.14614385       0.02160095       0.45721513       2.01400000      -1.77316922       0.85730224       0.33139344       0.63211238
O        1.20384197      13.43432431      17.91727068        0       0.41687137      -0.07053730       0.25371603      15.99900000       0.58163879       0.99782453       0.43666678      -1.25767803
H        2.02312802      13.87944499      17.58191518        0      -0.47610368       0.22795580       0.08677655       2.01400000      -0.24455953       0.03428544       0.37722892       0.64196450
H        1.05251537      12.68266241      17.35259291        0      -0.34250788       0.08416334       0.35231269       2.01400000      -0.40264323      -1.00211472      -0.89208530       0.62220013
O       12.17626462       3.35239869      33.60524141        0      -0.14463806      -0.46869029       1.27296516      15.99900000      -0.21998020       0.21902560      -0.72683951      -1.23759592
H       12.37680650       4.30748153      33.54998224        0       0.50307281      -0.15894018       0.10853282       2.01400000      -0.83662685       0.71353053      -0.01783453       0.60745502
H       12.98397610       3.15137954      34.10877136        0       0.27430050       0.25225806      -0.05429721       2.01400000       0.50753141      -0.71728300       0.53334912       0.62461919
O       15.05079039       6.59123891      17.53991386        0       0.10215917       0.48428772      -0.28572321      15.99900000      -1.64685480       0.16078140       0.39163608      -1.22833633
H       14.06475887       6.31411502      17.62724394        0       0.24356507      -0.50239816      -0.19340057       2.01400000       1.33096239       0.30773877       0.31799251       0.59436172
H       15.04013104       7.02779095      16.67857080        0      -0.11264624       0.00557258      -0.00444771       2.01400000       0.39149700      -0.21746134      -0.76786840       0.59887731
O       13.70811627      15.84468559      40.92952781        0       0.00050437      -0.30193091       1.28465640      15.99900000      -0.30521938       0.60451944      -0.57210628      -1.28957796
H       13.89336603      15.03173135      41.40926400        0       0.48801817       0.34728264       0.19666016       2.01400000      -0.25825109      -0.94680177       0.20081501       0.61347598
H       14.09052132      16.50671803      41.52473531        0       0.22000207      -0.08631922       0.07317593       2.01400000       0.31485353       0.46583140       0.16325835       0.62619448
O        0.76120984      11.37792760      29.86611101        0       0.20600606       0.28978017      -0.08291016      15.99900000       0.71525355      -1.50697138       0.73185702      -1.23877704
H        1.29580259      10.72407600      30.46167019        0      -0.03284064       0.21772391       0.26855600       2.01400000      -1.20147530       1.09185132      -1.02857684       0.61557060
H        0.01734077      10.90327673      29.40657346        0      -0.26194404       0.15113862      -0.44032910       2.01400000       0.31703444       0.39913712       0.36972800       0.61640608
O        7.95550500      11.97753314      42.77214428        0       1.62869430       0.69239888       0.16357754      15.99900000      -0.01855773      -0.74531747       0.93944940      -1.27082658
H        7.60680959      12.86059351      42.84225962        0      -0.41102157       0.45382735      -0.24982848       2.01400000      -0.09146629       1.42751110      -0.29631512       0.62940013
H        7.64856499      11.59752844      41.93968427        0       0.00029790       0.17972029       0.20334547       2.01400000      -0.25449533      -0.70741570      -0.86608164       0.65329802
O        4.48623431      16.60579226      35.02501659        0      -0.02194437       0.76703408       0.23655057      15.99900000      -0.50856076      -0.47996466       2.95635780      -1.23210394
H        3.67135763      16.06670444      35.09807703        0      -0.08319038      -0.18691049       0.10091247       2.01400000       0.43362177       0.23241114      -0.55250719       0.60507488
H        4.69259359      16.74364420      34.13252339        0      -0.04285795      -0.07660765      -0.06110344       2.01400000      -0.13301740       0.04263734      -2.65616070       0.62468612
O        2.94249081      16.63052030      19.36417474        0       0.19879320       0.32199945      -0.37641661      15.99900000      -2.07343653      -2.02673640      -0.63425653      -1.26798654
H        3.52816606      17.05870743      18.77219839        0      -0.31880984       0.02698055      -0.02744838       2.01400000       1.29788976       1.15477561      -0.72542745       0.64383972
H        2.98617701      16.93148726      20.24376561        0       0.08407852      -0.16191492       0.29256655       2.01400000       0.44165693       0.91630898       1.68394463       0.60380304
O        7.58936286       8.44354518      17.83469460        0       0.40704384      -0.61268263      -1.40121926      15.99900000      -0.48212316       1.20196932      -0.01974837      -1.19367075
H        6.99592908       9.20856859      17.54882033        0       0.13854355       0.30875653       0.07312415       2.01400000       1.16369084      -0.94961268       0.34746682       0.58303767
H        8.50896984       8.80574984      17.88327013        0       0.21959228       0.18363500      -0.30676353       2.01400000      -1.07383707      -0.19325583      -0.16880488       0.60245848
O       14.42125674       7.75972318      32.92106661        0       0.43867518       0.22157384      -0.14513801      15.99900000       0.40540861      -2.86806931      -1.38098052      -1.23779202
H       13.49695807       7.52413598      32.99396433        0       0.47786986       0.40072644      -0.07165988       2.01400000      -0.77059899      -0.07819168       0.12947005       0.63054413
H       14.55324328       8.60561212      33.25681516        0      -0.17782152       0.32398403      -0.03877537       2.01400000       0.31620596       2.51835095       1.44188397       0.64262074
O       10.23772322      11.88331936      43.92847428        0       0.74250905      -1.18924924      -0.46486055      15.99900000      -0.08959431       0.37921421       0.15168873      -1.23892462
H       10.09456039      12.76308204      44.33737324        0      -0.52642993      -0.26362690      -0.09942711       2.01400000       0.31335568      -0.54652047      -0.03420641       0.56983119
H        9.38372260      11.77818521      43.42490946        0      -0.08338762      -0.40706036       0.06148613       2.01400000       0.13796771      -0.00952094       0.19825941       0.63748765
O        1.14859342       5.59162351      33.69400226        0       0.33634046       0.22129027      -0.40839904      15.99900000       1.04755677       0.60656935       1.25735793      -1.28573632
H        1.96163433       6.02421709      34.21463296        0       0.55511803      -0.19437188       0.17877478       2.01400000      -2.24618921      -0.79530575      -1.05127577       0.60518485
H        0.37068091       6.20428221      33.63983115        0       0.14709813      -0.21010555      -0.30149443       2.01400000       1.07578498       0.00310572      -0.04707223       0.60988325
O       12.97004342       7.71279185      24.05102530        0      -0.00988603      -0.78045288      -1.21594673      15.99900000       0.85529418      -0.45970781      -1.03544667      -1.24777508
H       13.56727907       8.45807490      24.30868112        0      -0.13873108      -0.28003485      -0.24564384       2.01400000      -0.01542344      -0.14192329       0.13840046       0.65844154
H       13.56035635       7.12399805      23.49897202        0      -0.02904874       0.03604282       0.14197577       2.01400000      -0.49021296       0.71730223       1.05295530       0.61506271
O        9.89454434       1.83387456      11.56089748        0      -0.58149367       0.82275826       0.00478766      15.99900000      -0.24639267      -1.18617296       1.99795093      -1.24080765
H       10.33248158       1.63754274      10.74832229        0       0.05243817      -0.11283116       0.31077150       2.01400000       0.52020929       0.04530928      -1.32175739       0.63049811
H       10.13583907       1.00845674      12.08604741        0      -0.36514378       0.15170093      -0.05270067       2.01400000      -0.82496181       1.18819560      -0.60929410       0.60259408
O        3.28352907       9.76465466      17.80793224        0       0.15440522       0.78631452      -1.33444760      15.99900000       0.36253479      -0.36937767      -1.24780617      -1.29762673
H        2.81934118       9.07165078      18.31614360        0      -0.18884992      -0.07167738      -0.11991851       2.01400000       0.16230471      -0.31232642      -0.28369403       0.63843161
H        3.56473492       9.39738818      16.89046902        0       0.24729505       0.56450479      -0.32013323       2.01400000      -0.52689027       0.92337594       1.65623990       0.65364927
O        4.30788370      11.63187351      23.12884097        0      -1.24058569       0.33994078       0.54571290      15.99900000       0.20342061       0.20420133       1.15452410      -1.34585977
H        3.62785810      11.12546946      22.65899463        0      -0.18217890      -0.42037847      -0.12710394       2.01400000      -0.54950697      -0.16631124      -0.70988603       0.62270683
H        5.17083427      11.62538144      22.64967005        0      -0.11618569       0.12742681      -0.02116347       2.01400000      -0.11401634       0.22152155      -0.15746101       0.70632106
O        2.13185775      12.05507485      11.84827331        0       0.17371229       0.97843077      -1.13487628      15.99900000       0.09403323      -2.58130672      -0.74920801      -1.27841640
H        2.02693413      13.00049722      11.76644340        0      -0.38713119      -0.26499331      -0.01996593       2.01400000       0.00915312       1.41739045      -0.92676413       0.69737941
H        2.26479440      11.61207840      10.95458310        0      -0.01042380       0.19025432       0.00556251       2.01400000      -0.41162904       1.31391287       1.30886911       0.61306143
O        5.76493268      13.22150162      27.42200484        0       0.43151928      -1.04160047      -1.53933888      15.99900000       0.08829143      -0.27898340      -1.25584884      -1.25350010
H        5.61786415      12.27344910      27.64685483        0      -0.17928133       0.27807848       0.06821645       2.01400000      -0.05691705      -0.02965117       0.09436559       0.61581820
H        5.57490302      13.23165979      26.42373810        0       0.35524503      -0.44601772      -0.07250994       2.01400000       0.37853979       0.11207402       1.05929222       0.63351554
O        9.59106904      14.37888763      46.20683870        0       0.82125740       0.53701769      -0.07569674      15.99900000       0.14421166       0.97317020      -0.62042115      -1.25403261
H        8.73383777      14.03504249      46.44625463        0      -0.43353638       0.28936081       0.43151515       2.01400000      -0.45826802      -0.34467565       0.22473019       0.59993196
H        9.37554234      15.27044259      45.84517087        0       0.01415255       0.08006490      -0.01780568       2.01400000       0.27610707      -0.66703431       0.31830996       0.60061234
O        8.16586447       5.62108626      40.38478092        0       0.90586187       0.13527150       0.87670003      15.99900000      -0.04367859      -1.90455652       0.00452046      -1.18607676
H        8.24082049       4.63378640      40.55355784        0       0.18778933      -0.41334410       0.05704911       2.01400000      -0.04240216       1.70430362      -0.28545298       0.53781444
H        8.96771190       6.05779683      40.76239961        0      -0.15631783      -0.39847603       0.26104074       2.01400000      -0.14111650      -0.02142356       0.42539125       0.59453297
O        2.42650476       9.69989618      38.99199224        0      -0.49414829       0.02321795      -0.07871360      15.99900000       0.53640369       1.85800953      -0.12883334      -1.22094619
H        2.25970847       9.87652821      39.92626153        0      -0.41524465      -0.03435031      -0.04167749       2.01400000      -0.02394160      -0.14970626       0.40587920       0.62079644
H        2.40211091       8.77643502      38.85146623        0      -0.08049288      -0.03791564      -0.11769003       2.01400000      -0.23484521      -1.82580336      -0.48858967       0.60475874
O        1.76304204       0.38858346      30.04077887        0       0.22636680       0.18727490       0.69372583      15.99900000      -0.27326672      -0.14274378       0.33323283      -1.20904732
H        2.67460445       0.74413321      30.09453024        0       0.24490684      -0.20316885      -0.02630272       2.01400000      -0.66243540       0.44258723       0.05338068       0.57958561
H        1.09589041       1.13329233      30.20805008        0       0.06440303      -0.11747072       0.29253456       2.01400000       0.94631118      -0.47852103      -0.37892862       0.62417954
O       12.24035528       3.27580098      38.03991688        0       0.16897233      -0.42063380       0.77364644      15.99900000      -1.74779730       0.59010201       0.40558624      -1.27743399
H       13.14281387       3.55307191      37.87089746        0       0.06584663       0.23925910      -0.00890492       2.01400000       0.80026283       0.49931839      -0.08108624       0.60098547
H       11.65992433       4.07761368      38.35806859        0      -0.23211877       0.35634962      -0.43032120       2.01400000       1.00247421      -1.39436901      -0.66191930       0.63104469
O        4.55178327      13.61656829      40.09327090        0       0.90894906      -0.75745153      -1.51570743      15.99900000       0.94716723      -0.76840448       0.18151343      -1.32970655
H        4.27033064      14.45067191      40.47322657        0      -0.08568166       0.08582038      -0.49675699       2.01400000      -0.35241837       0.72915317       0.06056540       0.66231835
H        4.05657631      13.28137751      39.32888167        0      -0.10560927      -0.14175733      -0.07338269       2.01400000      -0.23977106      -0.08825359      -0.40917092       0.68340677
O        8.45005977       8.29367166      44.65875505        0      -0.94931191      -1.06783144      -0.29989248      15.99900000      -0.80186112      -0.84567960       0.58339955      -1.31100500
H        8.33887564       7.56202623      45.28163744        0       0.05480837       0.13570658       0.51594959       2.01400000       0.85059992      -0.72670392      -0.18538987       0.64726734
H        7.65908615       8.80404625      44.89875483        0       0.07077353      -0.12553690       0.30397539       2.01400000      -0.10860394       1.43522793      -0.71232618       0.67084008
O        8.60967909      10.84994266      13.71317303        0      -0.47597294       1.00449165      -0.34606006      15.99900000       0.53600461       0.06552872       0.05289207      -1.30354345
H        9.49002564      10.53560827      13.36164886        0       0.00556346       0.01972483      -0.20121304       2.01400000      -0.30133704       0.85812328       0.28179499       0.62829530
H        8.00023813      10.13528140      13.43639018        0      -0.32689311      -0.35065495       0.53026986       2.01400000      -0.34549693      -0.23107586      -0.16947050       0.65502632
O       11.08042903      11.56472355      24.58487470        0       0.70262127      -0.19567305       1.14341761      15.99900000       0.23237589       1.04471174      -0.38445991      -1.24010491
H       10.83740724      12.34317121      24.03743203        0      -0.29851237       0.10503543      -0.08361491       2.01400000      -0.18037824      -0.51917923       0.01220688       0.59665167
H       11.91198592      11.90616774      24.98502391        0      -0.02996392      -0.19150064      -0.19632919       2.01400000      -0.12857029      -0.48417255       0.37036822       0.63447142
O        9.30671250       2.96925482      18.87059608        0       0.95438454      -0.50364063       0.97002671      15.99900000       1.16534074      -1.13514975      -0.91989416      -1.27870107
H        9.81870127       2.20454639      18.41378806        0      -0.15904897       0.08564795      -0.38509538       2.01400000      -0.89767884       0.75475903       0.69328280       0.65299642
H       10.07796667       3.55127447      19.09584408        0      -0.33276583      -0.14921835       0.36525124       2.01400000      -0.34248348       0.33782892       0.30777033       0.65861481
O        7.71058301      14.69957691      42.49117488        0      -1.59647375      -0.87590242      -0.47204875      15.99900000       0.63615115       0.18936652      -0.06037388      -1.23835588
H        7.54199591      14.96110450      41.53895121        0      -0.04199257      -0.11211204      -0.28755964       2.01400000       0.92235749      -0.62974693       1.16353187       0.62967831
H        8.68981673      14.62957032      42.73523174        0      -0.22955358      -0.08925268       0.28675594       2.01400000      -1.39352924       0.27623998      -1.16103112       0.63820505
O        7.79838693      13.05256378      29.21490074        0      -0.05285505       0.30430060       0.97289445      15.99900000       2.97523996       2.12145486      -1.06529923      -1.22514749
H        7.53737081      13.61080914      28.46064927        0      -0.38649218       0.25265754      -0.20666508       2.01400000      -0.54773685      -0.77518319       0.33927839       0.57239497
H        7.14213254      12.45211449      29.47637031        0      -0.15666249      -0.00190096      -0.20852274       2.01400000      -2.08456166      -1.48885856       0.52004102       0.63324356
O        2.27381494       7.51217042      19.03065181        0      -0.30186462       0.67061780       0.27839887      15.99900000       0.18124075      -0.83201032      -0.12982867      -1.22658086
H        1.49911085       7.20696487      18.50855791        0       0.07524859       0.11874792       0.60286812       2.01400000      -0.19450379       0.06584865       0.30196197       0.64177883
H        2.89061538       6.74955281      18.90703995        0      -0.29428655      -0.14049988      -0.24370967       2.01400000      -0.31264486       0.44511197      -0.22720570       0.63258463
O        7.74381858       4.18223673      20.84014235        0       0.39274055      -0.81672653      -0.21679511      15.99900000       0.50585033       0.89273822       0.26123855      -1.24154282
H        8.43615575       4.90048331      20.95512419        0      -0.33906557       0.02076046       0.04210688       2.01400000      -0.95000796      -1.15574034      -0.46535861       0.60553384
H        8.11033592       3.50055499      20.24905389        0       0.06720571      -0.14596589      -0.01271972       2.01400000       0.44220955       0.28598392      -0.13211864       0.62972581
O        1.66933004       8.50703263      25.52931666        0      -0.13600297       0.63946496      -0.12377889      15.99900000       0.12820721       0.67750543      -0.01652665      -1.26249242
H        2.38993520       9.18372978      25.37824322        0      -0.27219670      -0.48221004      -0.15992839       2.01400000      -0.18439610      -0.74304596       0.27723406       0.62048900
H        0.83087052       9.02887544      25.47755184        0      -0.39947709      -0.11799414       0.38358658       2.01400000       0.07659953       0.11787447      -0.26114330       0.63867676
O        9.63913965       8.09230525      11.47914666        0      -0.74167291      -1.36602044      -1.05283387      15.99900000      -0.97862418      -1.43605252      -1.91651295      -1.21490693
H        9.23414871       8.18855513      10.55172184        0      -0.00645779       0.10932122      -0.24121455       2.01400000       0.37452496       0.44840423       1.32188426       0.59037459
H        9.56005413       7.09035065      11.52155822        0       0.11543894      -0.23218216      -0.04265623       2.01400000       0.53411605       1.05889503       0.57343093       0.59871578
O       10.03588089      17.01748135      44.77428795        0       0.63257478       0.15334127       0.05999485      15.99900000       0.99793009      -1.54930197      -0.16218365      -1.26127887
H       10.89326388      16.87107561      45.22491555        0      -0.03486138       0.21928309      -0.06301701       2.01400000      -0.55859871       0.45607096      -0.03188785       0.61501575
H       10.09099292      16.26582727      44.12201085        0       0.09573808       0.00453147       0.67623467       2.01400000      -0.23377316       0.73148462       0.14822134       0.61674947
O       14.39632652       3.79822771      14.15010884        0      -0.01523656       0.56618016       0.25422087      15.99900000      -0.39597485       0.71243559      -0.41973887      -1.27008939
H       13.58164518       4.24001347      14.58239918        0      -0.08502870       0.05976793       0.34504141       2.01400000       0.96834047      -1.27316881       0.16751164       0.73051548
H       15.00350570       3.33132073      14.74010841        0      -0.44223618      -0.23019249      -0.30832422       2.01400000      -0.37439751       0.33389805       0.22256398       0.59372509
O       12.68215327      10.99248892      32.73924599        0      -0.29340935      -0.15119908      -0.73324361      15.99900000      -1.91266693      -0.69856162      -1.74414472      -1.19515169
H       11.94492936      10.77052342      32.03304954        0       0.14823597       0.04214139       0.15617420       2.01400000       2.19378922       0.04288997       1.07081743       0.60792947
H       12.15853866      11.58794333      33.27705217        0       0.01239878       0.10788632      -0.29049444       2.01400000       0.00609989       0.45773864       0.60984825       0.60804886
O       11.43606778       6.39954806      13.61372847        0       0.40403638      -0.02991963       0.29778918      15.99900000      -1.60390826       0.65896370      -0.10847751      -1.22194242
H       10.97483743       7.17150394      14.04722210        0       0.16833764      -0.54749071       0.27951471       2.01400000       0.51208543      -0.83609608      -0.26572835       0.60696864
H       10.65143433       5.94812635      13.17198573        0      -0.36869360      -0.06020740      -0.15669402       2.01400000       0.71561893       0.75068880       0.18635494       0.63260096
O        3.42015708      14.75824454      17.06932991        0      -0.32307306       0.85671114      -0.95703262      15.99900000       0.30038250       0.39673479      -1.75888408      -1.20016336
H        3.77411419      15.67802764      17.13187406        0       0.32620881       0.27665524      -0.44863012       2.01400000      -0.33699328      -0.48400258       0.31524154       0.61702490
H        3.20886979      14.71348676      16.09482421        0       0.22850403      -0.30277609       0.11574052       2.01400000       0.22859822      -0.04643599       1.13737856       0.58081895
O        0.98337384       3.57503534      10.35872546        0      -0.01692550      -0.91011780       0.22071756      15.99900000      -1.73015543      -0.69728110      -0.95041370      -1.20485604
H        0.22889704       3.10081776       9.83042417        0       0.68403326       0.30407266       0.26091218       2.01400000       1.76364218       1.20825699       1.03103936       0.56428176
H        0.56119731       4.27658558      10.94967924        0      -0.46934286       0.23065137      -0.04834648       2.01400000       0.25050094      -0.66314602      -0.30338468       0.63257706
O        4.39888884      16.86199899      32.13780955        0      -0.30054668       0.96215484      -0.45279861      15.99900000      -2.42891182      -0.04413772       0.52882591      -1.17443442
H        5.01954460      16.34696520      31.64757870        0       0.03042709       0.30652560       0.19199475       2.01400000       1.55936651      -0.66418003      -0.89306639       0.60778469
H        3.53578956      16.38996916      31.98625366        0       0.18174832      -0.09024185       0.31700968       2.01400000       0.97924225       0.43308250       0.44090896       0.57302958
O        6.97140758      10.64357791      33.93502853        0       1.28606540      -0.08005200       0.50336034      15.99900000       0.27460658       0.83585362      -0.49545355      -1.26516509
H        6.23236788      10.18854861      34.40338538        0      -0.16449844       0.08182592       0.04663698       2.01400000       0.65335639      -0.59463978      -0.27297810       0.64906764
H        6.96522073      10.39817311      32.98729545        0      -0.21090454      -0.39816552       0.20284040       2.01400000      -0.40225813       0.11120292       0.48987027       0.58157575
O       12.29871591       7.20186916      40.08409893        0      -0.43409556      -0.01090011       0.45396643      15.99900000      -0.81489572       0.82178116      -0.70064163      -1.29476357
H       12.60196668       7.98702199      40.59596289        0       0.16602777      -0.20293183      -0.07396707       2.01400000      -0.01503337      -0.37209085       0.12654722       0.61035806
H       12.69597983       6.39953459      40.45706694        0      -0.28549990       0.06564635      -0.13888376       2.01400000       0.50306188      -0.47299870       0.32571413       0.67258638
O       14.41530686       1.85933426      20.96377978        0       0.11548145      -0.50216095       0.44253794      15.99900000      -0.58705216       0.38896776       0.02449895      -1.19621968
H       13.68216423       2.42019820      21.32210974        0      -0.09759392       0.19238581       0.58535585       2.01400000       0.37571866      -0.13343731      -0.48641634       0.61069244
H        0.07027515       2.45488822      20.86365112        0      -0.19634807      -0.23241062       0.17658568       2.01400000       0.12189506       0.16612190       0.04777304       0.59023571
O        4.10926941       9.86145619      25.10714236        0       0.29900031      -0.36637934       0.55876362      15.99900000      -0.30372588       0.20284590       0.77578968      -1.29563308
H        4.11956007      10.53236734      24.39729169        0      -0.19822663       0.24524233      -0.08832699       2.01400000       0.30098101       0.24298344      -0.52769376       0.65093422
H        4.51018774      10.32434327      25.87915129        0       0.09350006       0.52459625      -0.39271038       2.01400000      -0.28996097      -0.44410759       0.31139450       0.66554439
O        5.91261500       1.81697994      18.37102919        0      -0.27311942      -0.69845286      -0.78520520      15.99900000       0.90287735       0.34239451      -1.63079875      -1.25144923
H        6.72331481       1.34891493      18.11263676        0      -0.48839697      -0.23473827      -0.14896954       2.01400000      -0.00530804       0.21335049       0.04722976       0.58804721
H        5.87432783       1.67617047      19.32815548        0       0.02376838       0.29068971       0.37789437       2.01400000      -0.67698731      -0.36351256       1.46811203       0.71730387
O       13.55781780       1.12320997      15.49809140        0      -0.75961107       1.67411976      -0.34789143      15.99900000       0.85868927       0.19841239       0.02244711      -1.24943292
H       12.65208126       0.96293803      15.69934938        0      -0.24459775       0.58553467       0.05429448       2.01400000      -1.22590476      -0.13129208       0.90723648       0.57671088
H       13.55802702       0.98696889      14.53975841        0       0.05921659      -0.02463644       0.25309592       2.01400000       0.71539742      -0.03542571      -0.61115433       0.65737355
O        9.83773938      10.42122713      33.72579391        0       0.31159460      -0.13441005       0.43319912      15.99900000       1.68879793       1.93237227      -1.35932661      -1.22623610
H        9.98799375      11.32227614      33.27271079        0      -0.05093695      -0.17919641       0.13427392       2.01400000       0.14654072      -1.71877814       0.87648338       0.58004069
H        8.93574201      10.49784601      33.97749653        0      -0.09422704      -0.10096784      -0.37225072       2.01400000      -2.08514305      -0.16544189       0.69869992       0.63090372
O       12.12704688       4.36761446      15.04459732        0      -0.18009651       1.23903627       0.22473684      15.99900000      -1.51803881       0.41181022       0.25232401      -1.23859167
H       11.62919853       5.05992272      14.51983997        0      -0.18443216       0.37727234       0.03563968       2.01400000       0.92076728      -0.21832391       0.09267044       0.63700569
H       11.82765427       4.61046555      15.93595207        0      -0.01119104      -0.40953818      -0.24281698       2.01400000       0.52550538      -0.05307392       0.32909472       0.58522159
O        4.83221822       2.97450448      15.66873107        0      -0.82908987      -0.51109339       0.44853481      15.99900000      -0.84218013      -1.57659967      -0.56084964      -1.24930274
H        5.08252112       3.82078899      15.31749544        0       0.70247468      -0.14744645       0.08612809       2.01400000       0.17846063       1.66510070      -0.70036732       0.66518283
H        4.81475470       3.14867077      16.58279198        0      -0.21532976       0.01828864       0.11493674       2.01400000      -0.01216241      -0.07972453       2.02212651       0.60960788
O        7.95757940      16.98434685      27.92921521        0       0.85417740      -0.25858249       1.17950378      15.99900000       0.61120330       0.89945386      -0.07851398      -1.22625709
H        8.60050866       0.31153975      27.89487331        0       0.43561399      -0.14741712       0.00087436       2.01400000      -0.07678395      -0.59713627      -0.07301392       0.61924690
H        7.17311734       0.04655023      28.20553407        0       0.18981958       0.09063553      -0.17078521       2.01400000      -0.75170874      -0.19980593       0.31800420       0.62938023
O        1.92000052       8.88804777      12.49691771        0      -0.50374035       0.54058274      -0.21797693      15.99900000      -1.17119567      -1.24183170       0.05142445      -1.16911697
H        1.45777944       8.52801717      11.67790157        0      -0.29208208      -0.57141839       0.06520918       2.01400000       0.71839299       0.99769437      -0.14795776       0.62122941
H        1.58351665       8.20834202      13.11209437        0      -0.28146369      -0.15852338       0.41692655       2.01400000       0.34519591       0.01845614       0.54807979       0.55824113
O        9.97798924      15.67700916      34.41242562        0       1.40713744       0.17508048      -0.57233321      15.99900000      -0.85950757      -0.28724568      -1.26321578      -1.24597549
H       10.61274595      16.37014652      34.55451838        0       0.47032958       0.20391825       0.19346313       2.01400000       1.28747192       0.62123472       0.63587394       0.60350895
H        9.62180890      16.01003309      33.55112032        0       0.05762189       0.05561939      -0.04314336       2.01400000      -0.52126561      -0.41988492       0.46415548       0.62905109
O        2.38169084      10.41783052      41.77128656        0       0.45266515       1.31081504       0.10596055      15.99900000      -0.11532372      -0.16328514       0.33825490      -1.24329281
H        3.22818693      10.72705661      42.15671907        0      -0.40311006       0.21441036       0.07531242       2.01400000       0.32661594       0.35917305      -0.50743039       0.66789365
H        2.11409318       9.72763115      42.38572981        0      -0.00411091      -0.02785401       0.20753054       2.01400000      -0.27691581      -0.26019922      -0.13782047       0.58064550
O        0.87493215       0.80961396      36.95666763        0       0.09933925      -0.36719279       0.91069665      15.99900000      -1.57781262      -1.06872934      -0.07123586      -1.24295712
H        1.61319011       1.38447209      36.94851884        0      -0.23116405      -0.06949895      -0.18960404       2.01400000       1.86388205       0.98103390       0.21592726       0.60931289
H        0.53242209       0.81850685      36.04722883        0      -0.19295211      -0.08689486       0.04767907       2.01400000      -0.03022835      -0.15804956      -0.00522474       0.61643553
O        2.50482924       3.86801315      31.94564667        0      -0.56850587      -0.73670171       0.11021004      15.99900000      -0.16982265       0.76117350       0.03426121      -1.24441123
H        2.79111797       4.56340081      31.30142089        0      -0.02570270       0.35649201       0.11430382       2.01400000      -0.27914309      -0.16794215       0.14253322       0.61013615
H        2.06808062       4.43874407      32.63833577        0      -0.42906072      -0.22546282       0.11906921       2.01400000       0.15384178      -0.54420256      -0.54436714       0.64628011
O        4.88837023      10.62362042      27.60313063        0      -0.02745917       0.86892548       0.47533190      15.99900000      -0.66957026       0.71070317       1.58047927      -1.26825690
H        5.09600548      10.07447318      28.41589327        0       0.13602882      -0.45123503       0.25125535       2.01400000      -0.40249528       0.08443437      -0.90947631       0.63133180
H        4.00725545      11.07559809      27.86023959        0       0.13594782       0.13170607      -0.27438085       2.01400000       0.97688453      -0.78112664      -0.65902527       0.66862881
O        8.30594967      17.35892363      32.48884617        0       0.68680597      -0.04886787      -1.37225781      15.99900000       2.14699332       0.21899686       0.64829660      -1.35917544
H        7.83612603      16.96730703      31.77325380        0       0.12687123      -0.21899140      -0.26813078       2.01400000      -1.07382592      -0.63284074      -1.05623390       0.65069664
H        7.77873400       0.03259588      33.30031606        0      -0.16075391      -0.07478539      -0.23397928       2.01400000      -0.82236722       0.19967816       0.45226303       0.70626432
O        0.62894254       7.02342247      23.28177745        0      -0.60309266      -1.10972345      -0.62906441      15.99900000      -0.09545083       0.86761341       1.33397414      -1.32306385
H        0.99379261       7.60895686      24.01850797        0       0.48739482      -0.17370152      -0.30211269       2.01400000      -0.69798455      -1.03144387      -0.66495824       0.56089056
H        1.28795172       7.25505882      22.54931149        0       0.38716902       0.27561687      -0.18416798       2.01400000      -0.31567313      -0.16619500      -0.01156172       0.71662122
O        9.24813061       7.96073122      15.25588190        0       0.18934387       0.29059727      -0.32625443      15.99900000      -1.79561251       2.47651182      -0.98416700      -1.22550559
H        8.34636002       7.54185445      15.46648647        0       0.02993239       0.01448589      -0.06330343       2.01400000       1.47293772      -0.24074647      -0.34734289       0.66673666
H        8.92023620       8.86943269      14.86972072        0      -0.22680366      -0.30064351       0.36147374       2.01400000       1.10614849      -2.11061937       0.74444355       0.56690890
O        4.91983204       6.64870572      22.10378526        0       0.12391774      -0.56359983       0.36414998      15.99900000       0.38250514      -0.39672994       0.67309771      -1.28485465
H        4.02598759       6.98096793      21.99424585        0       0.12586088       0.35433042       0.01254854       2.01400000      -1.04833160       0.02807156       0.05039322       0.61104089
H        5.43731081       7.31684329      21.61374445        0       0.11855703      -0.30003541       0.12262826       2.01400000       0.48185440      -0.05033472      -0.45937368       0.67184108
O       11.60923203      15.10861213      27.10706575        0       0.06840463      -0.48596177      -0.58674626      15.99900000      -0.87395574      -0.37507710       1.14614843      -1.24323344
H       10.97649953      15.30987965      27.87419019        0      -0.08125182       0.22927334      -0.19106608       2.01400000       0.21936165      -0.03470778      -0.83286536       0.64904445
H       11.44172048      14.14908067      27.01981323        0      -0.10131654       0.01333376      -0.04033444       2.01400000       0.50225564       0.46404688      -0.25046888       0.59095597
O        6.84570243       2.31346589      12.08831346        0      -0.39630939       0.22386520       0.74880471      15.99900000       1.55325395       0.16618162      -1.48655027      -1.31404161
H        7.77613243       2.24421481      11.69292184        0       0.14657354       0.39513356      -0.34624842       2.01400000      -1.41974404      -0.22766864       0.90907189       0.63536823
H        6.81216361       1.85072657      12.94361302        0      -0.16828886      -0.03972745      -0.19921197       2.01400000      -0.09244780      -0.43290155       0.74201775       0.69853020
O        7.80968019      13.67055988      32.27433883        0       0.16440129      -0.22146334      -0.17033247      15.99900000       0.39904352      -0.21425452      -0.55935816      -1.20469809
H        8.66798843      13.42961870      32.63700315        0       0.39295469      -0.19367332       0.07068088       2.01400000       0.76721011       0.08232595      -0.44295712       0.58137232
H        7.26889637      13.51155043      33.03551368        0      -0.23845268      -0.18093207       0.11690518       2.01400000      -1.29650309       0.15883712       1.12097349       0.60163933
O        8.41078279      13.91978165      17.46819110        0       0.18628463      -1.39779735       1.03455256      15.99900000      -1.56049271      -0.88702452       0.69820756      -1.24140370
H        7.59930526      13.40403530      17.84293211        0      -0.04593448      -0.29103214       0.13323479       2.01400000       0.99446231       1.46234974      -0.71575220       0.60163534
H        8.65003798      13.44879727      16.63912207        0       0.06615393       0.30147061      -0.07574540       2.01400000       0.30584594       0.06131036      -0.12216551       0.58867365
O        4.22528589       0.41981513      10.14227210        0       0.25927879      -0.80147517       0.80988667      15.99900000       1.86945020       1.12929101       0.61834754      -1.23942137
H        3.53345638      17.40018861       9.70873386        0       0.25092262      -0.02422053       0.26788841       2.01400000      -1.59089685      -0.61387971      -0.74236291       0.59908301
H        4.29327449       1.32429431       9.74449647        0       0.00797217      -0.17892362      -0.16696320       2.01400000      -0.37727053      -0.43211618       0.39850031       0.63138765
O        7.57410102       8.30792571      41.91698645        0      -0.82432415       0.85925481       0.62078641      15.99900000       0.50964554      -1.35153919       1.90176225      -1.15815973
H        7.61760271       7.96761505      42.87879410        0      -0.11635522      -0.54691229      -0.33770147       2.01400000      -0.41029752       1.04738463      -1.50112755       0.58172536
H        8.48854265       8.05029159      41.68463633        0      -0.03736727      -0.04039309      -0.05001566       2.01400000       0.04017935       0.16190211      -0.32586252       0.61169815
O       12.10513295       6.14253938      33.96816260        0       0.11318302       0.66931148       0.99936506      15.99900000       0.85519745       0.09252709       1.47792742      -1.24316633
H       11.18250667       5.82501703      33.88513667        0      -0.26863353       0.17827464      -0.08604917       2.01400000      -0.49737559       0.06139157       0.02315447       0.62353706
H       12.22001421       6.12539654      34.97940296        0      -0.06294942       0.50035209       0.47716654       2.01400000       0.38164995      -0.11738758      -1.58415400       0.57019413
O        9.03684712      10.33021802      29.00775309        0       0.24517253       1.00064849      -0.25611432      15.99900000       0.44850511      -0.61525079      -0.28623673      -1.21868765
H        8.72080189      11.21525310      28.81825932        0      -0.48960042      -0.09603761       0.01278991       2.01400000      -0.34810670       0.71319223       0.12466362       0.60673559
H        8.38885082       9.93904257      29.60821187        0      -0.35250674       0.38793630       0.47381108       2.01400000      -0.07732607       0.08658448       0.03869682       0.61173290
O        2.26357107       9.69513662      34.50827469        0      -0.21524454       1.00962730      -0.20594100      15.99900000       0.36155616       0.32685139      -0.03789638      -1.21658254
H        1.88173946      10.48851151      34.90193069        0      -0.37878161       0.21187403      -0.53923761       2.01400000       0.03492179       0.20647579      -0.22851727       0.60059094
H        2.29813286       9.12222377      35.27526038        0      -0.39795327      -0.49470967      -0.58727633       2.01400000      -0.02487430      -0.61467412       0.16654484       0.57569361
O        8.64418237       4.40497631      35.98729413        0       0.04713886      -0.06406127      -0.41578009      15.99900000      -1.15140335       0.89717201       0.72481921      -1.23245811
H        7.95501456       4.78260109      36.62837746        0      -0.29945999      -0.29330832      -0.32302482       2.01400000       0.93104485      -0.43663692      -0.81676624       0.62975162
H        9.07926194       3.65509225      36.39064875        0      -0.47547794       0.18483473      -0.03011169       2.01400000       0.08589639      -0.42759437       0.33447084       0.63606977
O        2.39497433      10.50679366      21.69490718        0       1.04794535      -1.92551186       0.04344694      15.99900000      -1.12236673      -0.27544534       0.98151679      -1.30224943
H        2.53027193      11.25482755      21.03896651        0       0.13257206       0.66630755      -0.06666335       2.01400000      -0.66361321      -0.06516935      -0.05046886       0.70596480
H        1.47252697      10.64704517      22.11140629        0      -0.32747685      -0.00602698      -0.17459111       2.01400000       1.50838275       0.10811926      -0.82130409       0.60082340
O        5.85658939      12.41034793      10.07689628        0      -0.13012542      -0.32852063      -0.09723928      15.99900000       0.57666500      -0.24539041       0.72882676      -1.25865018
H        5.52126271      11.51564411      10.07277954        0       0.24801980      -0.46895037      -0.12104873       2.01400000      -0.09404749      -1.37382569       0.02510694       0.62750584
H        5.10409212      12.93244675       9.78591347        0       0.13340272      -0.13915744       0.24371021       2.01400000      -0.56452674       0.99849987      -0.20884198       0.66607893
O        8.67091758       8.03317253      32.86705743        0      -0.06060035       1.46970358       0.73042252      15.99900000       1.10019458      -2.07803089      -0.09397879      -1.21747971
H        9.32007730       7.26628270      32.90698574        0       0.04431968      -0.23305072       0.23048306       2.01400000      -1.27597434       0.82631179       0.18072212       0.56114393
H        9.25471477       8.78725206      32.97671603        0      -0.05814053      -0.28685935       0.21057013       2.01400000       0.25428425       0.95231137       0.05338644       0.61502600
O       12.37295533      14.60762227      31.58915666        0       0.00255428       0.75098783      -0.03830267      15.99900000       1.07156742      -1.29888951      -0.04881039      -1.25534487
H       12.12822366      14.91193854      30.71602259        0      -0.20648560      -0.05837160      -0.12309036       2.01400000      -0.53005237       0.28213729      -0.36342534       0.60989231
H       13.13247940      13.97504348      31.36303059        0       0.08348175       0.08743608       0.04513493       2.01400000      -0.34356692       0.79266349       0.37100835       0.63599062
O        7.41495477       8.72165372      13.03333872        0       0.48552537       0.81190147       0.04396489      15.99900000      -2.54417852      -0.58433775       0.64132971      -1.28132844
H        6.42407630       8.40180573      13.09949649        0       0.15734900       0.63389164       0.11689237       2.01400000       2.31036189       0.37980992      -0.67554353       0.62510586
H        8.01156092       8.15990005      12.51082111        0       0.16316948      -0.26724782       0.27997166       2.01400000      -0.27272056       0.07948784      -0.13589587       0.65045643
O        2.45055960      11.66804349      27.60148468        0      -0.40051292      -0.12025000       0.46074987      15.99900000       0.88269740       1.12471104      -1.94187601      -1.25885201
H        2.22090791      12.46529034      27.06274347        0      -0.44269426      -0.05695255      -0.06787032       2.01400000       0.24014450      -0.75710683       0.68227643       0.56355745
H        1.71763398      11.50534893      28.17128262        0       0.31522937       0.66897275       0.45820164       2.01400000      -1.16757525      -0.07183313       1.39630957       0.65741128
O        2.12584890       7.08864522      37.41344806        0      -1.14669922      -0.34472823      -0.41855908      15.99900000      -1.17212783       0.20525138      -0.28955528      -1.21902239
H        1.12666790       7.03221800      37.37956120        0       0.33963744       0.25031015      -0.07111571       2.01400000       0.63542518       0.82666148      -0.09987899       0.63596457
H        2.24564282       6.33524299      37.99091397        0      -0.11596641      -0.04615837       0.22498502       2.01400000       0.84676782      -0.95566923       0.43082056       0.59478176
O        0.91377507      12.37002504      40.49687132        0      -1.79930588       0.20976002       0.45383879      15.99900000       1.16116296      -1.07000705      -0.05627311      -1.23528039
H        1.29181407      12.40603665      39.59539381        0       0.12361276      -0.28786676       0.39143405       2.01400000      -0.52507653       0.48712012      -0.18289315       0.61751050
H        1.55809311      11.75010583      40.95237744        0      -0.29517473      -0.00585773      -0.42899677       2.01400000      -0.63445448       0.66187254       0.25047940       0.63763988
O        5.99553721      13.35879088      18.46094213        0       0.48158543      -0.26831213       0.75115012      15.99900000       1.07103581      -0.79657264       0.70851188      -1.25998187
H        5.76265111      12.42446905      18.77115917        0      -0.04747629      -0.32063628      -0.09063535       2.01400000      -0.46174683       0.30387387      -0.27101168       0.69405949
H        5.36650265      13.63724137      17.80386202        0       0.06241764      -0.42646808      -0.11085252       2.01400000      -0.92527076       0.27762331      -0.54385331       0.60058296
O        0.07601054       0.69138810      24.87637325        0      -0.35258437       0.50387208       0.44028468      15.99900000      -0.05562037       0.18804485       1.72420954      -1.24771762
H       14.32070093       1.02035435      25.29075303        0       0.06867552      -0.12472844       0.01313468       2.01400000       1.12810951      -0.09290026      -0.67720329       0.64917862
H        0.66087345       0.45035780      25.64507104        0       0.41188697      -0.02362023       0.43404946       2.01400000      -0.54829119       0.00951283      -0.88986868       0.58883888
O        1.85222891      12.44644010       9.05362395        0      -0.33171875      -0.44178264       0.53244123      15.99900000       0.99645048      -1.92613185      -0.22322391      -1.23675466
H        1.01952014      12.83986388       9.18128427        0      -0.14290351       0.01546076      -0.08974831       2.01400000      -1.96356276       0.90265850       0.20584215       0.61511284
H        2.44374316      13.17015283       8.93071242        0       0.06427215      -0.84903524       0.30147764       2.01400000       1.07078923       0.86587171      -0.26188162       0.58539277
O       10.97524450      15.97009626      40.83476176        0       1.30473383       0.64724043      -0.98222117      15.99900000       0.82511016       0.87171143       0.04353619      -1.26899266
H       11.95772892      16.05024124      40.69341379        0       0.10787442      -0.18082494       0.02696038       2.01400000      -0.17195447      -0.23023645       0.40712577       0.65163493
H       10.60408677      15.84223713      39.95919517        0       0.23211997       0.04212934       0.52226767       2.01400000      -0.46989824      -0.39213948      -0.71751412       0.63060981
O        2.25461042       9.72854657      31.54381578        0      -0.39540447       0.24644961       0.60549107      15.99900000       0.62022808       0.00643184      -1.67599142      -1.24360967
H        2.43114663       9.79640417      32.47678275        0       0.03124779      -0.17109292      -0.29064161       2.01400000       0.12746817      -0.35139931       1.10246007       0.64711916
H        3.03060493       9.30609866      31.09349742        0       0.31586127      -0.25774425      -0.18523987       2.01400000      -0.51847165       0.00795128       0.44263156       0.62307227
O        6.64982359      15.53486482      12.57591686        0       0.66275515      -1.18949533      -0.04113248      15.99900000      -0.49795275      -0.38127397       2.27606405      -1.21417022
H        6.46303771      14.58624174      12.83004172        0       0.13329997       0.01709794      -0.26162182       2.01400000       0.30174045       0.39484422      -0.52845759       0.61494845
H        6.40486584      15.97528830      13.45109632        0      -0.25557530       0.00783823       0.41313051       2.01400000       0.39275173      -0.35418766      -1.49603257       0.60722876
O        8.11821610       3.86348275      31.74758688        0       0.93247021       0.10346520      -0.90016412      15.99900000       0.93527315      -0.66409934       1.46344673      -1.29646051
H        7.90310507       3.77738198      30.81455049        0       0.30311142      -0.08277348      -0.51820330       2.01400000      -0.68523168      -0.35511875      -1.04498747       0.63763881
H        8.80795740       3.11055597      31.89023911        0       0.13685431      -0.13548859      -0.23132536       2.01400000      -0.86966523       1.16232409      -0.23083090       0.68164438
O        2.99658399       5.92862986      25.54076228        0      -0.27974898      -0.50861389       0.25991083      15.99900000       0.38283605       0.65999583       1.26547295      -1.26783085
H        2.37429120       6.66011062      25.29876238        0      -0.01114236      -0.09562793      -0.07394514       2.01400000       0.87728388      -0.43707199       0.69574270       0.62926847
H        3.38854352       6.10434845      26.50274576        0      -0.14297007       0.83115225      -0.23102682       2.01400000      -0.89391818       0.10192262      -2.00133615       0.64242578
O       10.82185496       9.07375156      44.30436942        0      -0.83727523      -0.64128961      -0.38090396      15.99900000      -0.55305021      -1.09072114      -0.51438006      -1.30336785
H        9.84360983       8.78230841      44.32120337        0       0.18634956      -0.24637048      -0.39235114       2.01400000       0.81310590      -0.03476056       0.26871556       0.71370631
H       10.77395219       9.97797552      44.56339249        0      -0.06713769      -0.32209227      -0.01300567       2.01400000       0.00055332       1.79559450       0.20849389       0.64013970
O        1.56224166       3.76930025      25.15541140        0       0.35677807      -0.40014089      -0.19049303      15.99900000       1.43672802      -0.29274183       1.25760940      -1.27350008
H        0.89361439       3.92296030      24.49424570        0      -0.50152305       0.11016222      -0.22721372       2.01400000      -1.03466934       0.20104847      -1.02467261       0.62707752
H        2.14862947       4.58063545      25.16443968        0       0.17828650      -0.17992058      -0.31562932       2.01400000      -0.25363381      -0.31625509       0.28824300       0.64983046
O        4.63836085      11.70430506      41.78224743        0       0.48734777      -0.85471922      -1.14880558      15.99900000       1.17065130       0.96919466      -0.31763613      -1.19359243
H        4.64021148      12.37775085      40.99900556        0       0.12793085      -0.01641501      -0.75958458       2.01400000      -0.67034440      -0.20631902       0.60173101       0.67625678
H        5.34442873      12.13497936      42.30939074        0      -0.41489248       0.45137959       0.03036330       2.01400000      -0.64112591      -0.56726982       0.14155166       0.56567389
O        6.53865581      10.81504425      16.33576455        0      -0.30937723       0.35296548      -0.23523574      15.99900000      -2.12271246      -0.59996512       0.12681141      -1.21698928
H        6.23123912      11.64688407      16.69726856        0      -0.01858705      -0.07297271       0.10174320       2.01400000      -0.29558591       0.25194530       0.25807632       0.59290522
H        7.45828445      10.90506742      16.27031729        0       0.18331397       0.17648133       0.04928822       2.01400000       2.69575207       0.14574657      -0.38211016       0.62467128
O       13.28684728       3.39767845      44.41182093        0       0.51407181       1.66407416       0.53264691      15.99900000      -0.81788261       0.89034950       1.80794768      -1.27040517
H       13.62659581       3.33920363      45.33756737        0       0.09961020      -0.00982269      -0.10427126       2.01400000      -0.12780891      -0.11632756      -1.09378667       0.62123317
H       12.41342392       3.85273221      44.54700029        0       0.15866315      -0.28701231       0.15601325       2.01400000       0.82745086      -0.82802785      -0.35715129       0.62409461
O        2.26839106      14.52491892      34.27499079        0       0.48303703      -0.40703288       0.06336197      15.99900000      -0.70287646       0.00312255       3.84055765      -1.30953550
H        2.94493761      13.82752467      34.32087191        0      -0.47298786       0.29424603      -0.18242152       2.01400000       0.56992244      -0.49891969      -0.21552335       0.70302784
H        2.14381464      14.75829773      33.40841531        0       0.05342726      -0.17107215      -0.72376098       2.01400000      -0.42968738       1.15816899      -3.70076583       0.60694134
O       11.04886368       2.08342242      35.87469507        0      -0.49786275      -0.86328122      -0.23808812      15.99900000       0.69875948       0.60344305      -0.94278012      -1.27059329
H       11.24955821       2.72163482      35.12859391        0       0.02054222       0.29147099      -0.08002886       2.01400000      -0.31986734      -0.75640985       0.60838800       0.59450585
H       11.59174048       2.42704174      36.62355958        0       0.06484381      -0.40332622      -0.18646881       2.01400000      -0.25328491       0.13526751       0.21946806       0.62571013
O        1.33468414       0.74867413      11.53712760        0       1.42398857      -0.07384657       0.15993305      15.99900000      -0.48956848       0.69394283      -0.35430689      -1.16250610
H        2.15361339       0.63744363      12.03528418        0       0.22808651      -0.11450054      -0.08215632       2.01400000       0.22933901       0.33808885      -0.06159243       0.63495642
H        1.28516717       1.70747168      11.27620641        0       0.44592183      -0.10909492      -0.09863826       2.01400000       0.32124538      -0.51745141       0.59676383       0.61192358
O       13.15689549       5.00437135      41.14616706        0      -1.76704007       1.51380747       0.01611323      15.99900000       1.22117217       0.32339843       0.44328296      -1.28767490
H       14.16409081       4.99396573      41.04904192        0       0.33151061      -0.16564990       0.30389339       2.01400000      -1.20765199       0.32506113      -0.13132846       0.64295208
H       12.85861419       4.12663619      40.90846128        0       0.09509215      -0.06608069       0.12904209       2.01400000      -0.35364680      -0.95365407      -0.34069856       0.63871294
O        6.38257678       3.70343163      33.89792658        0       0.20252340      -0.26449539       0.07408415      15.99900000       0.63923836      -0.73443738      -1.80811547      -1.22169995
H        6.95435068       3.67855566      33.02458060        0      -0.30897540       0.45514812       0.39358961       2.01400000      -0.83851590       0.35615365       1.46168920       0.63564909
H        6.02875705       2.79045924      33.90714132        0      -0.14554406       0.33306106      -0.22894741       2.01400000       0.21066090       0.44210260       0.18464047       0.57179713
O        9.80180668       1.96243518      31.92475986        0       0.05866551       0.16356300       0.96023022      15.99900000       2.30004932       0.33996127      -0.27993545      -1.28326142
H        9.35217431       1.18684667      32.27029067        0      -0.15721433       0.12230484      -0.12327483       2.01400000      -1.07484111      -1.28067609       0.24558669       0.70278788
H       10.75248661       1.84482133      32.15283759        0      -0.14571342       0.22911643       0.13851668       2.01400000      -0.93765014       0.59768774       0.10900592       0.57264334
O        7.94957809       8.96111518       9.29764076        0      -0.71051624      -0.15119108      -1.31877591      15.99900000       0.75590215       0.87653685       1.12119894      -1.22800374
H        7.11319647       9.13424527       9.81092954        0       0.03612226       0.29116777       0.01439906       2.01400000       0.60356704       0.05773321      -0.64790639       0.64925081
H        8.60810385       9.65230472       9.58950568        0       0.05579795      -0.25754316      -0.43180668       2.01400000      -1.32775693      -0.73708788      -0.58583212       0.55896449
O        8.89360989       2.91224434      38.63778977        0       0.54913111       0.14260271       0.70653759      15.99900000      -0.51576870       0.84680126       2.56324799      -1.15387487
H        8.02727437       3.19285923      39.12617144        0      -0.08882122      -0.43793378       0.21242901       2.01400000       2.13196332      -0.95830607      -0.76613530       0.55654478
H        9.53544889       2.63605011      39.38671742        0      -0.19084228       0.45423554       0.12190693       2.01400000      -1.60988332       0.26336734      -1.60017656       0.58589345
O        6.34103488       5.39563624      27.41603147        0       0.57208406       0.55484303      -0.17348901      15.99900000       0.29367918       1.33612484      -0.83933777      -1.24661624
H        5.93769571       4.87044269      26.68203398        0       0.11285886       0.80742200      -0.34796664       2.01400000       0.24670270      -0.10252693       0.33183337       0.64824706
H        6.71939680       6.15071052      26.85034273        0      -0.04793261       0.12709881      -0.12555733       2.01400000       0.18386843      -0.90376940       1.07214819       0.61096418
O       15.03320773      12.41633222      34.09919246        0       0.53204181      -1.36493933       0.84806819      15.99900000       1.97461993      -0.70505476       0.29193577      -1.22554541
H        0.84726174      12.76469240      33.90505081        0       0.02832157       0.14003740       0.25715248       2.01400000      -0.97101957      -0.22397123       0.58101996       0.56713152
H        0.05118258      11.47141739      34.52294823        0       0.14471602       0.06026052      -0.13299142       2.01400000      -0.67165860       1.48531766      -0.99267827       0.63116884
O       14.90712502      11.01549025      22.75358177        0      -0.89398128       1.31318205      -0.55947903      15.99900000      -0.28941145      -0.61201789      -1.18349395      -1.25754845
H       14.40514329      10.41852893      22.14268312        0       0.31921751       0.06775126       0.27790921       2.01400000       0.26845973       0.72497567       0.67438689       0.60540575
H       14.70143374      11.92792194      22.43363414        0       0.39606048       0.05511696       0.29621971       2.01400000       0.15800918       0.22883336      -0.40619542       0.67003936
O        4.40801027       2.29907194      26.71176762        0      -1.03774238      -2.07204485      -0.06395832      15.99900000       1.44654142       0.37079483      -1.89967782      -1.23437238
H        4.74712339       3.05089047      26.11504927        0      -0.29512676      -0.36159818      -0.03137505       2.01400000      -0.54817352      -1.02358632       0.94565296       0.61649323
H        3.64361582       2.57579354      27.19564420        0       0.04388305      -0.25472286       0.36559505       2.01400000      -1.42612075       0.81327663       0.56127805       0.64805406
O       13.34081187       8.85335244      10.14146700        0      -0.85447813      -0.34874029       0.41339802      15.99900000       0.33860443      -0.25617985      -2.10819991      -1.24148607
H       13.15742703       9.69516559      10.50286547        0       0.28825663       0.11028030       0.33417369       2.01400000      -0.12805410       2.11795914       0.28331853       0.61624348
H       13.16093317       8.34914132      10.90942771        0      -0.13274127       0.09384257      -0.29496608       2.01400000       0.12593713      -1.59624375       1.33522763       0.62962610
O        2.31331318       7.73143394      21.71516392        0      -0.47850072      -0.41344764       0.83866392      15.99900000       1.47960549       1.50055911      -0.30393853      -1.29092157
H        2.23062888       7.58973877      20.73839885        0      -0.16853463       0.01036944      -0.13605354       2.01400000      -0.11521478       0.33789753      -0.02971847       0.65721881
H        2.54170530       8.71604492      21.86150086        0      -0.39171308      -0.09855598       0.02542633       2.01400000      -0.59191493      -1.26467063      -0.75375403       0.65160489
O       11.74059982      10.96795132      38.91703007        0      -0.12536885       0.26385080      -0.17494803      15.99900000      -2.67347158       0.19706760       0.73415112      -1.29987311
H       11.87087445      11.24618223      39.83229714        0       0.18283885      -0.20008011      -0.48530201       2.01400000       0.06684616       0.21997230       0.31683320       0.66283399
H       12.54484341      10.84792289      38.47248455        0      -0.28175714       0.26848336       0.20000368       2.01400000       2.36090833      -0.36324334      -1.15386601       0.65139180
O        2.71511230       2.99910154      13.35246962        0       0.14033193      -0.17511252       0.49091735      15.99900000      -2.75211124       0.96362394       0.09906820      -1.22834051
H        3.48969712       2.51328076      13.50372500        0       0.21728867       0.60497460       0.07143284       2.01400000       1.90493077      -1.39007170       0.34426702       0.61426049
H        2.03181418       2.55142619      13.93137725        0      -0.42924022      -0.03093946       0.01485342       2.01400000       0.83690030       0.68323120      -0.57294986       0.60065699
O       10.03043123       7.17891671      41.53670352        0       1.40246062      -0.34093772      -0.22515781      15.99900000      -1.21964719       1.15909442      -2.95819708      -1.28092432
H       10.36445556       6.68253056      42.26121225        0       0.09750217       0.16725935      -0.29229771       2.01400000       0.94383736      -0.83557952       1.77157470       0.67850196
H       10.77836751       7.19424758      40.87905556        0      -0.03752305      -0.28636411      -0.12502260       2.01400000      -0.11391164       0.26986594       0.48597251       0.60393274
O        7.75147431       7.23282270      25.75030061        0      -0.59596897       0.62635413       0.73564579      15.99900000       1.13942203      -1.73113522       1.11738199      -1.23942256
H        8.35106461       7.90859365      26.08399918        0      -0.68191330      -0.29883914      -0.25271413       2.01400000      -0.51478929       0.37458071      -0.23073722       0.57685632
H        6.91087503       7.55165068      25.41277984        0       0.38363925      -0.01519673      -0.38244870       2.01400000      -0.62213418       1.10541275      -0.63171083       0.67284602
O        4.05222079      14.20618764       9.43302193        0       0.34949472       0.90334264       0.19395944      15.99900000       0.63369471       0.80744986      -1.30619701      -1.21478367
H        4.65918026      14.97675031       9.26642594        0      -0.14338808       0.67305516      -0.09441726       2.01400000       0.13004836      -0.87345902       0.34505334       0.62819368
H        3.36954904      14.59500623       9.96184529        0       0.31157364      -0.43159765      -0.38929887       2.01400000      -0.90597463       0.25216843       1.35177057       0.61548507
O        3.50236873       2.32187637      23.58456782        0      -0.36804194      -0.38834177      -1.28306020      15.99900000      -2.74595077       1.12973522      -0.22297924      -1.18324542
H        2.71822148       2.63650051      24.15958759        0      -0.30547967      -0.14259358      -0.46409736       2.01400000       1.37713488      -0.35511115      -0.41738002       0.60349923
H        4.17742727       1.93315540      24.11427122        0      -0.24874825       0.10081248      -0.35002696       2.01400000       1.08486448      -0.57705623       0.94376109       0.62825298
O        9.57284755      16.14258373      12.59770973        0      -0.19341787       0.68875910      -0.33285034      15.99900000       0.50419967       0.08453035       1.04602472      -1.22000396
H        9.83305417      16.02071029      13.56062434        0      -0.42756510      -0.33380211      -0.10614448       2.01400000       0.14478133      -0.14142784      -1.33845181       0.60134828
H        8.63046361      15.94255671      12.63279690        0       0.16380211       0.11243000      -0.15828562       2.01400000      -0.66877573       0.00727558      -0.26064719       0.60633278
O       14.33340218       5.73321205      26.84427766        0      -0.08567755       0.34128983       0.40710674      15.99900000       2.33321443      -0.13134029      -0.44962125      -1.21666431
H        0.06721608       5.22020268      26.51653815        0      -0.34967207       0.10867944       0.02778630       2.01400000      -2.06583301       1.22918470       0.75059720       0.57766569
H       14.65102540       6.67930847      26.96955082        0       0.12544386       0.23943576      -0.05310665       2.01400000      -0.46027231      -1.26459932       0.04089106       0.62018025
O        5.05211121       8.20298965      39.68310790        0      -0.16678720      -0.10213988       0.05832543      15.99900000       1.98750441      -2.67441156       1.91039130      -1.23614824
H        5.72777963       8.26202623      39.02248749        0      -0.09405141       0.25087577      -0.33295029       2.01400000       0.35814209       0.48264257      -0.78057070       0.63749403
H        4.32348138       8.73112845      39.54867129        0       0.23128435      -0.33366342       0.05663406       2.01400000      -2.27616033       2.21293217      -1.06943386       0.62476528
O        6.77525498      15.91798698      30.62947045        0       0.38597377       0.92740989      -0.60423267      15.99900000      -0.58101747      -3.13698464       0.29478518      -1.18196607
H        6.99585826      14.97197165      30.99388550        0      -0.35053609       0.44559724      -0.34323642       2.01400000      -0.09874181       2.33785915      -0.61357676       0.57946068
H        6.21456808      15.66748992      29.83443262        0      -0.02843403       0.00923059       0.31226364       2.01400000       0.61979656       0.81533295       0.30692769       0.58705878
O        7.01580059       5.77628308      43.86487869        0      -0.09578221       0.42450989      -0.76020509      15.99900000      -1.89940281       0.10778922       1.47763254      -1.21064365
H        6.33979528       5.51872139      43.19714659        0      -0.00893964       0.08578454       0.10737800       2.01400000       0.36435406       0.02855844      -0.42968517       0.63273942
H        7.86132832       5.66875074      43.48947573        0       0.14636618      -0.06285760       0.31142145       2.01400000       1.57234191      -0.22355923      -0.90505490       0.59925097
O        5.66868983       8.82305210      35.26108149        0      -0.56962923       0.51236428       0.07666172      15.99900000      -0.69209747       2.28363003       0.79978575      -1.23688328
H        5.85432310       7.93779406      35.03969782        0       0.09352608      -0.11684816      -0.07142936       2.01400000       0.82933207      -2.25350902      -0.78783103       0.67551780
H        4.73049736       8.91389310      35.10365942        0      -0.20969416      -0.48872957       0.00643807       2.01400000      -0.61444477       0.08960216       0.02311617       0.60555643
O        0.02263236      16.74421324      18.79223414        0      -0.21075156      -0.28343196      -1.64453850      15.99900000      -1.46182499       0.24186333      -0.20997886      -1.23682070
H       15.02449390      17.37985532      19.51148295        0       0.19488638      -0.04883164      -0.23154055       2.01400000      -0.11078440       0.16151851       0.06095852       0.58676434
H        0.94613293      16.53146812      18.78125364        0       0.30134455       0.12442330      -0.17545744       2.01400000       1.49875498      -0.25962722       0.16299803       0.64836329
O        8.22431961       3.89492291      16.63703219        0       0.86402524      -0.17460549      -0.41386143      15.99900000       2.57031314      -0.55487710      -1.24840757      -1.25908482
H        8.59730376       3.64422277      17.53645658        0      -0.08102530       0.28611116      -0.11665538       2.01400000      -0.59413269       0.11062022       0.18074932       0.66909111
H        9.09024598       3.72041389      16.12664641        0      -0.27439344      -0.35897088       0.32745125       2.01400000      -1.94076550       0.49349493       0.68116508       0.55863369
O        4.80602812       7.93071140      12.58574679        0      -1.74161190       1.20147833      -0.37410309      15.99900000      -0.21288227      -1.06546722      -0.32309486      -1.18377459
H        3.92013691       8.05263668      12.96775351        0      -0.15873835       0.47201175       0.20277208       2.01400000      -0.00404392       0.50017165      -0.08836666       0.63525909
H        4.70586549       7.01359655      12.24386022        0       0.09423396       0.24449315      -0.12349261       2.01400000       0.04787249       0.67385218       0.14684355       0.58175409
O       13.76747790       7.49715358      12.38961660        0      -0.56692382       0.05273442       0.58318575      15.99900000      -0.15410587      -0.54509478      -0.92737969      -1.18814707
H       14.00075014       7.94547605      13.17818222        0       0.29088871       0.22000433       0.40897228       2.01400000       0.96195798       1.41381432       1.62867116       0.62809783
H       12.94591616       7.12553107      12.71050773        0      -0.09114818      -0.31610954       0.06536491       2.01400000      -1.28832585      -0.82424510       0.00209044       0.63565743
O        2.38911551      14.85099225      26.56833867        0       1.05224243      -0.76651505      -0.28527078      15.99900000      -0.03729737      -1.01093859      -0.03631273      -1.21001601
H        1.52648314      15.06035547      26.13632451        0       0.11888281       0.01997213      -0.23920316       2.01400000       0.67028227      -0.18936222       0.39211757       0.59359747
H        2.69947502      15.70394924      26.93558840        0      -0.37328835      -0.26770381       0.04945700       2.01400000      -0.51597257      -0.23200256      -0.54646858       0.61702931
O       12.71626089       1.35947809      10.53402448        0      -0.69806290      -0.19539193      -0.51113941      15.99900000      -0.39453678      -0.12757296       0.94150473      -1.21037340
H       12.92549616       1.48296396      11.49123018        0      -0.07581609      -0.48004231      -0.03139118       2.01400000      -0.29539511      -0.48999878      -0.75724405       0.60667908
H       12.07433658       0.61104555      10.42913992        0      -0.59396337      -0.13158813      -0.10825365       2.01400000       0.88443424       0.58964313      -0.08439028       0.65043366
O        1.57856329       4.05706317      20.68261303        0      -0.11803494       0.13690885       0.50435236      15.99900000       1.47329840       0.44741219       1.63755786      -1.23643756
H        2.53027513       4.12583769      21.03327167        0      -0.14260286       0.02453115       0.27839541       2.01400000      -1.15346902       0.20084484       0.07407074       0.59943682
H        1.81354358       3.60974173      19.88259662        0      -0.18047659       0.26324993       0.09313092       2.01400000      -0.36189865      -0.72702870      -1.72054333       0.61078966
O       12.96855691      15.18339292      14.38901440        0       0.72887243      -0.50936384      -0.42051983      15.99900000       0.36372110       0.08444741       0.45280526      -1.27805161
H       12.05532395      15.37656179      14.69570648        0       0.10454059       0.14980660      -0.01015689       2.01400000       0.59834554       0.12004999       0.03493155       0.61421645
H       13.61614611      15.33814103      15.14704890        0       0.14347168      -0.12958250      -0.09862686       2.01400000      -0.82183373      -0.23471079      -0.89247443       0.63015831
O        4.33760097       0.06424498      17.23899560        0       0.30832037      -0.24089103      -0.72151752      15.99900000       0.05702116       0.45492716      -0.34087122      -1.19011319
H        4.94720949       0.82152114      17.45175857        0       0.14695181       0.24637422      -0.24867779       2.01400000      -0.00158712      -0.51794782       0.50439831       0.61185580
H        3.59845594       0.54139152      16.84110179        0      -0.26392358      -0.10298031      -0.31657074       2.01400000      -0.26860858      -0.27502687      -0.31243162       0.56514585
O        6.29636210      12.66069208      12.78195032        0       0.23796153      -0.26219433      -0.92292920      15.99900000      -2.22897646       1.46781515      -0.64860262      -1.25911057
H        7.05107797      12.25378942      13.14619845        0       0.03322206      -0.25735882      -0.09183804       2.01400000       1.85239605      -1.15798580       0.09532451       0.60162044
H        6.19084438      12.57476686      11.79339890        0       0.39818453      -0.09703631      -0.04707122       2.01400000       0.42307127      -0.29507949       0.52119284       0.64740092
O       13.03763603      14.34522402      11.34778092        0       2.23822213      -0.67129627      -0.32645035      15.99900000       1.29907649      -0.09298416       0.02622129      -1.29406679
H       12.83428690      14.48493973      12.27238716        0      -0.26452006      -0.30517078      -0.21202029       2.01400000      -0.06773978       0.16492073       0.75484111       0.61111337
H       12.27698881      13.93003044      10.95760699        0      -0.02820467      -0.53741524       0.10056791       2.01400000      -1.32852372       0.02524893      -0.48733830       0.65218931
O        6.48522713      13.40588571      35.04777457        0       1.68263176      -0.38322576       0.94946192      15.99900000       1.82555298      -1.89570687      -0.85039770      -1.18235481
H        7.29966019      13.76221285      35.45199495        0       0.01355609      -0.14234194       0.04476759       2.01400000      -0.53707309       0.44057439       0.35995576       0.60277152
H        6.84982793      12.48498235      34.77920700        0      -0.16171601      -0.44209092      -0.05520546       2.01400000      -1.21845242       1.28308815       0.43792671       0.59484601
O       11.88387251       9.58376268      22.41903287        0       0.03880295       0.34616060      -0.85254896      15.99900000      -0.22881103      -0.27206711      -0.85052618      -1.24754572
H       12.26002849       8.71286061      22.71088354        0      -0.17345750       0.19508373      -0.21270531       2.01400000      -0.59489309       0.74502084       0.49960009       0.62139547
H       11.24396647       9.92284859      23.06870015        0       0.44310660      -0.07711620       0.11569718       2.01400000       0.55197356      -0.16835248       0.35631165       0.62154818
O        6.64217223      10.21632390      44.56310118        0       0.45438198       0.73349448       0.68573539      15.99900000       0.80602288      -0.06447982       0.99733449      -1.23949409
H        5.75341028       9.91037239      44.44311671        0       0.42340365      -0.23889101       0.16800275       2.01400000      -1.25494989      -0.26835582      -0.34307880       0.64125574
H        6.80740316      10.98196835      44.00807383        0      -0.04759183      -0.02470104       0.05647453       2.01400000       0.36076919       0.13573331      -0.42489344       0.60466427
O       14.19707191       3.59763406      17.35943615        0       0.48446565       0.73488385      -0.66586839      15.99900000       0.22751263       0.73122659       0.32172199      -1.20668983
H       13.62577135       3.02838878      16.85467010        0      -0.06236160       0.25426973      -0.40230863       2.01400000      -0.36296936      -0.73915406      -0.47680662       0.59837812
H       13.80917127       4.48366429      17.24590393        0      -0.25807171      -0.67641369       0.03852552       2.01400000       0.19496263      -0.27485388       0.14159437       0.62051272
O       14.82631222      10.01040682      39.86399005        0       0.93543883       0.80352691       1.38392624      15.99900000       1.38495784       2.12474849      -0.19432644      -1.20459437
H       14.36304932       9.72596345      40.62147808        0      -0.20509666      -0.04991599      -0.17439458       2.01400000      -1.24426325      -1.12111490       1.63042975       0.58034408
H        0.05372835      10.93905395      40.20674081        0       0.15535130       0.01735858       0.16191253       2.01400000      -0.36176086      -1.46255486      -1.23164033       0.57806325
O       11.36150398       5.90306281      43.15431256        0       0.57896149      -0.22012649       0.65618563      15.99900000       0.47951164      -1.03238037       1.26946455      -1.28685880
H       11.82218726       6.28878173      43.94265661        0       0.27280094       0.00941549       0.38889051       2.01400000       0.07251231       0.16715904      -0.77691936       0.62777340
H       12.03534797       5.54226710      42.53593224        0      -0.24438351       0.01766726       0.04924238       2.01400000       0.23497717       0.17440869       0.22539086       0.63954884
O       11.95122852      13.11971510      17.88485452        0      -0.80195008       1.01833505       0.74319558      15.99900000       2.74914896       0.17510067      -0.16727970      -1.29741979
H       11.11709307      12.96085079      18.31036831        0      -0.17561906      -0.68292049       0.52754971       2.01400000      -1.35931913      -0.42874237       0.41017133       0.62502086
H       12.58004331      12.63262628      18.53296812        0      -0.10501676      -0.07949642      -0.23326923       2.01400000      -0.95305941       0.50246017      -0.88186007       0.61311221
O        3.38031953       6.42069242      35.08764529        0       0.84794875      -0.72143745       0.12047694      15.99900000      -0.29263980       0.25873435       0.38238604      -1.23604214
H        3.72910404       5.58863968      35.40561583        0      -0.08552073      -0.51659457      -0.17079860       2.01400000       0.73427231      -1.19342915      -0.12184128       0.60654283
H        3.05852014       6.73143483      35.96619950        0       0.04870559      -0.04274908       0.00727850       2.01400000      -0.58083155       0.65886407       0.01044227       0.62447512
O        0.39918147       2.68524229      30.28939919        0       1.00818339      -0.13327484      -0.13347087      15.99900000      -1.52041569      -0.92591488      -1.50374407      -1.29430366
H       14.51732396       2.81542788      30.51496539        0      -0.12675610       0.29392563      -0.04172318       2.01400000       1.59999188       0.38414571       0.37406641       0.64482248
H        1.05685472       2.88326659      30.94732893        0      -0.12872753       0.19692618       0.14067598       2.01400000       0.25135828       1.00503174       1.31810910       0.64992005
O        3.97581749      12.74142645      34.41188056        0      -0.08387176      -0.72537577       1.39606401      15.99900000       0.87853570      -0.94098752      -0.19089011      -1.20929027
H        4.59564196      12.98340535      35.15842702        0      -0.14625944       0.09506563       0.25865640       2.01400000      -0.14429226      -0.56929972      -1.65329700       0.65008938
H        4.41898890      12.41197060      33.56574967        0      -0.34984264       0.23555684      -0.06987061       2.01400000      -0.46697987       0.83542158       1.75860661       0.62215072
O        6.22007510      15.98537168      37.35491609        0       0.22104016      -0.96272544       1.32088783      15.99900000       1.57930295      -1.10119313      -0.79299634      -1.25269890
H        7.13552092      15.55077402      37.02971318        0      -0.28250771      -0.16217370      -0.06150709       2.01400000      -1.60418922       1.21217483       0.36951230       0.64145237
H        5.63379996      15.83366316      36.59616826        0      -0.31445835       0.15999526      -0.20776260       2.01400000      -0.15271418       0.16622769       0.04043357       0.58798218
O        7.02014655      16.91473934      19.64800368        0       0.52559127      -0.28359994      -0.03064665      15.99900000       0.60187067       0.04237677       1.08586370      -1.21712375
H        7.18894761      16.70731103      20.59864558        0       0.02570657      -0.23025996      -0.00420366       2.01400000       0.42821132       0.54240043      -0.12896415       0.60835433
H        6.44307188      16.18079818      19.48782543        0      -0.18773895       0.00988031       0.03098577       2.01400000      -0.83114232      -0.70824760      -0.86404918       0.57204831
O       10.79199290      15.42529824      20.23463929        0       0.58880586      -1.51426846      -0.36528335      15.99900000      -3.35797234       0.49133650       2.76945520      -1.19342542
H        9.84101043      15.47248553      19.96081637        0      -0.12882660       0.19926591      -0.07483810       2.01400000       1.11961290       0.13372637       0.17094389       0.54741013
H       11.26730078      15.32727884      19.46614743        0      -0.14711052       0.20479512       0.42903836       2.01400000       1.89417615      -0.27139127      -3.30843032       0.59150189
O       11.18418605       8.24653964      17.00712073        0      -0.24483506      -0.26548193      -0.41131997      15.99900000       0.65500023       0.55873495       0.75983909      -1.27321208
H       11.86815649       8.66782332      16.44711024        0       0.21465809      -0.10898941       0.06355400       2.01400000       0.05268430      -0.28039943      -0.22578287       0.59598994
H       10.42623740       8.07197336      16.42522701        0      -0.19594320      -0.41039772      -0.10438074       2.01400000      -0.49260790      -0.26301188      -0.63342622       0.65440881
O       13.07566253       8.97816734      15.02344845        0       0.98981036       0.65039780      -0.03181066      15.99900000      -0.33239777       1.78614595      -0.04949172      -1.14548254
H       13.68359943       9.56139657      15.56203408        0       0.20572395       0.18174610       0.01937315       2.01400000      -0.89432884      -0.74680115      -0.80520773       0.59698486
H       12.46095063       9.64761979      14.56639209        0       0.12508457      -0.32750115       0.05610093       2.01400000       1.09998009      -0.98726620       0.75718805       0.60688931
O       14.57938701       9.85981940      24.93146768        0       1.00472351       0.56032302      -0.39801511      15.99900000      -0.71609486       0.48784160       0.18838948      -1.26683748
H       13.96489886      10.49053938      25.35235796        0       0.19301150      -0.03597021       0.00186085       2.01400000      -0.00507724      -0.22101813       0.75524151       0.61054921
H       14.77309968      10.43964058      24.14070140        0       0.41796836       0.20513664      -0.08527870       2.01400000       0.31108948      -0.52860246      -0.30343630       0.65858424
O       14.95250590      15.55884278      38.24147416        0      -0.49061561       1.15106909       1.82738958      15.99900000      -0.41822273      -0.40008705      -0.19288292      -1.23321164
H        0.50360998      16.03795103      37.72769662        0      -0.24795774      -0.30696918       0.35399260       2.01400000       0.24288319       0.58163762      -0.27933115       0.62371963
H       14.95679500      15.96695954      39.11973840        0      -0.15559743       0.45003389       0.21599576       2.01400000      -0.08519456      -0.15679682       0.32566414       0.64630926
O       13.34829584       0.38367775      27.95996956        0      -0.92375015       0.55618110      -0.09995672      15.99900000      -0.53471559      -0.87038872       1.22860118      -1.27673268
H       12.87240036      17.00900398      27.67407320        0       0.20744859      -0.05090151      -0.14495698       2.01400000       0.63202623       0.72623621      -0.18936030       0.59500206
H       13.30650743       1.04130910      27.23185203        0      -0.27694375       0.11200781      -0.34230935       2.01400000      -0.36694583      -0.52569330      -0.48489128       0.68370110
O        4.19482880       4.03257987      21.62951636        0       0.18864987       0.63793122       0.64845765      15.99900000      -0.52165675      -0.54313172       0.82031508      -1.25610054
H        3.96256538       3.75326878      22.55908627        0       0.05785914       0.06694874      -0.13521431       2.01400000       0.15312899      -0.40003499      -0.75676795       0.63035673
H        4.74221732       4.81813989      21.74165595        0      -0.28951749       0.22843736      -0.16504035       2.01400000       0.22236387       0.82273454      -0.18940745       0.65068215
O       11.55567985       1.56234933      29.53016757        0      -0.19892534       0.32283305       0.31643671      15.99900000       0.45310996      -1.42505789       0.07203358      -1.25096178
H       12.21311548       0.93505834      28.97532574        0       0.30077861       0.47103120       0.12883221       2.01400000      -0.73179344       1.05226379       0.88159775       0.65840644
H       11.12609287       1.05640041      30.26151591        0       0.47666843      -0.00553546       0.43170394       2.01400000       0.42123547       0.25164574      -0.87028724       0.57176471
O        0.47851182      10.90737477      13.70053216        0       0.14902793      -0.42418168       1.05886028      15.99900000      -0.06058065       0.50248501      -0.46716976      -1.21197355
H        0.81575891      11.71471073      13.18224525        0      -0.31793068       0.23684157       0.38292677       2.01400000       0.22117851      -1.95573999       0.62225576       0.63878369
H        0.90794300      10.06415959      13.35673041        0       0.14002149      -0.43995583      -0.07617060       2.01400000       0.13984261       1.28590060      -0.35972286       0.60899776
O        6.90438603      10.58171840      40.78795969        0      -1.18563230       0.70603309      -0.62746274      15.99900000      -0.08387313      -0.03307442      -0.88372096      -1.23513722
H        5.94607132      10.73110833      40.96459407        0       0.00371200      -0.27950862       0.17017951       2.01400000       0.35972913      -0.33280784       0.19219474       0.61092198
H        7.10864094       9.62281709      40.93223958        0       0.23759509       0.00728070      -0.41411160       2.01400000      -0.33706080       0.54412011       0.47980607       0.68625909
O        6.34974578      12.42047066      21.91653702        0       0.06152110       0.15489013      -0.53023465      15.99900000      -1.92702097       1.12939554       0.37858634      -1.26727343
H        7.17765059      12.14492840      21.60653176        0       0.33333071      -0.12092274       0.23943439       2.01400000       2.44564512      -0.91453165      -0.76080707       0.60350788
H        5.88345806      12.95395319      21.22647152        0       0.01842899       0.18376782       0.24443823       2.01400000       0.12456610      -0.75366450       0.77826246       0.62904578
O       14.99485625       0.58039377      34.16504232        0       0.82310304       0.19624752       0.19976250      15.99900000      -0.50390579       0.36368880       0.15270083      -1.28033292
H        0.31366362      17.17912122      34.08583648        0      -0.03939289      -0.12310842       0.44411421       2.01400000       1.71475840      -0.92368473      -0.30818299       0.60395586
H       14.10674630       0.19237583      34.26308671        0      -0.02246070       0.04574516       0.40664164       2.01400000      -1.23197959       0.61056688       0.30727185       0.64366621
O        7.49037439      15.97446382      22.37184272        0      -0.50685311      -1.21341899       0.31445341      15.99900000      -1.00313605      -0.02429091       0.58606500      -1.19230878
H        6.59647469      15.54010574      22.54705100        0       0.24132436      -0.08373846      -0.24149028       2.01400000       0.85067518       0.48445652      -0.08859303       0.59395158
H        7.48688671      16.67942547      23.05656438        0       0.16604375       0.03470676       0.43758826       2.01400000      -0.04230042      -0.37431281      -0.55884423       0.59849608
O        5.85134824       4.52415856      18.13004896        0      -0.91666610       0.16735018      -0.29546633      15.99900000       0.63251856      -0.36674005       0.96515052      -1.21372354
H        5.96743537       3.54668594      18.28325510        0       0.26634159       0.29911171       0.01010071       2.01400000      -0.13997061       0.15471363      -0.41489363       0.60684896
H        6.36929679       4.86133990      18.89404038        0      -0.09907302      -0.38527477       0.29679965       2.01400000      -0.41970492       0.13994519      -0.38188018       0.56963062
O        1.64791065      15.54766459      31.68415629        0       0.02891669       0.88923091      -0.75422996      15.99900000       0.20032977      -1.20592823       0.47231297      -1.24896419
H        1.63244500      16.42870618      31.29583820        0       0.19690991      -0.16828787      -0.41858860       2.01400000      -0.80331421       0.64153151      -0.81567703       0.61989021
H        0.84959148      14.99678202      31.49247992        0       0.04618004       0.07371501      -0.22065181       2.01400000       0.40592876       0.51257426      -0.17349238       0.61445314
O        1.85284099       3.15856085      17.78234142        0       0.58555648      -1.58589115      -0.48338065      15.99900000       1.77637067       0.16714950      -0.28386392      -1.31141686
H        0.91369114       3.41623096      17.77528160        0       0.20834277       0.30270122      -0.04471865       2.01400000       0.13447855       0.59621897      -0.19491205       0.63527310
H        2.57702809       3.95916357      17.67453603        0      -0.08600952      -0.22482089       0.28512916       2.01400000      -2.41904987      -1.04347191       0.28577912       0.66506708
O       13.12139160      11.47425540      19.61325732        0      -0.19888475      -0.21897846      -0.03895342      15.99900000       2.39814784       2.41910253       1.23383114      -1.20251107
H       14.02733467      11.97103753      19.82767147        0      -0.24606323      -0.40547488       0.14404973       2.01400000      -2.57727611      -1.11705881      -0.10156283       0.58986855
H       13.40192691      10.74657763      19.07384270        0       0.21324281      -0.02319250      -0.28259253       2.01400000       0.56173938      -1.30570944      -0.85951957       0.63885921
O        1.83270304      14.48323517      23.00590918        0       0.45693071      -0.10689490       0.08709884      15.99900000      -2.88128558       0.37642604       0.51013473      -1.23161387
H        2.54771647      13.92017434      22.88890245        0      -0.07636240      -0.02051389      -0.49207909       2.01400000       2.29013450      -1.64395136      -0.32616104       0.59016848
H        2.14732747      15.37850500      22.94892486        0       0.13181673       0.19854140       0.20217062       2.01400000       0.48539477       1.24601555       0.01527998       0.64830852
O        8.79857952      11.24053757      21.82408802        0      -0.44810874       0.84950820       0.51393544      15.99900000      -0.37418248      -0.24808350      -0.22822712      -1.23447180
H        9.12224859      10.81770461      21.00252975        0       0.63884455       0.02360184       0.21637061       2.01400000      -0.16125541      -0.15287126       0.02091052       0.64748746
H        8.58594849      10.49755822      22.41483143        0       0.31738364       0.30054974      -0.18459146       2.01400000      -0.31819033      -0.64174949       0.21614677       0.64645296
O        6.21012142       8.44219471      20.78660149        0       0.39181520       0.88836881      -0.31424815      15.99900000       0.16003447       0.35242694      -2.41376044      -1.22501576
H        6.64132820       8.38778436      19.88670850        0      -0.51791766       0.20807863      -0.46588530       2.01400000      -0.67089955      -0.20899405       0.83138618       0.59250617
H        6.94749689       8.70595984      21.33293111        0      -0.35253209      -0.26824186      -0.64725181       2.01400000       0.94702866       0.30575963       1.33005917       0.65149510
O        1.63798725       3.94284449      42.36755360        0      -0.27483079       0.12017738       0.40597510      15.99900000      -2.52812674       0.05454386      -1.58502319      -1.24310589
H        0.72024502       3.50212412      42.41507189        0      -0.32785491       0.09382415      -0.25028750       2.01400000       1.88254580       0.53547067      -0.06539948       0.60156327
H        2.18223919       3.66928786      43.08973615        0      -0.02123838      -0.33504463       0.08594016       2.01400000       0.40437526      -0.23942759       1.19577068       0.63393342
O        6.57407594       3.51970844      45.34955962        0       0.79548214       0.67836077      -1.07095293      15.99900000       1.14055336       0.22680618       0.29447298      -1.23103237
H        7.45455884       3.24614489      45.69166893        0       0.06355088      -0.23352006       0.43111554       2.01400000      -0.81007256       0.02290383      -0.12614292       0.61947072
H        6.78280754       4.43659705      45.02416326        0       0.27560433       0.39247071       0.01015464       2.01400000      -0.28812693      -0.16472123      -0.26867668       0.64456689
O        8.88309770       1.58908154      43.41979718        0      -0.08865602       0.33050145      -0.39883258      15.99900000      -1.88980175       1.05859071      -0.76268652      -1.30017757
H        9.14190553       1.08789945      44.18808975        0       0.04701784       0.01401478      -0.17047622       2.01400000       0.51746790      -1.09795203       0.47602086       0.65398514
H        7.87262357       1.53790208      43.39705439        0       0.48121292      -0.01295278      -0.67502500       2.01400000       1.30641322       0.03713784      -0.05860455       0.61636990
O        1.89926447      14.67010567      11.47822415        0      -1.40075040      -0.27420787      -0.28952327      15.99900000       1.98254006      -0.78264325      -0.27171372      -1.31425393
H        1.20872123      14.86712228      10.82437089        0       0.53113058       0.14759904       0.19290354       2.01400000      -0.82702686       0.61842926      -0.10259457       0.69378948
H        1.79670591      14.92323622      12.38550716        0      -0.09303846       0.50858905      -0.12203739       2.01400000      -0.62026439       0.32811289       0.56681380       0.57647383
O        7.00806699       0.58495763      34.61190326        0       0.01656799       0.13669003       0.02019955      15.99900000      -0.99666939      -0.62932142      -0.01026866      -1.26492751
H        6.28117543      17.42234590      34.95570344        0      -0.09030892      -0.40449381       0.29683446       2.01400000       1.51293414       1.18323476       0.15403634       0.60539991
H        7.63937605       0.90131103      35.31784442        0      -0.26462005       0.14650453       0.54946366       2.01400000      -0.72614926      -0.48791701       0.41499104       0.69679826
O        0.74438142      13.02607980      37.67814312        0      -0.96758637       0.36600101       0.96642912      15.99900000      -0.82368527      -1.05809366       0.59234118      -1.28945899
H        1.57148614      13.02744250      37.21658552        0       0.60548768      -0.11101518      -0.16119181       2.01400000       0.76471178       0.38507830      -0.37950782       0.56635159
H        0.47583583      13.91854490      37.95181277        0       0.09710233      -0.05323057      -0.45644179       2.01400000       0.10165510       0.42348532      -0.11055337       0.63247144
O       10.62184925       5.36735754      38.51390334        0      -0.32751517       0.42742120      -0.97766954      15.99900000       1.88736189       1.20828039       0.64425175      -1.20391500
H       11.07357391       6.11469459      39.06096000        0      -0.24694012      -0.65319048       0.04177823       2.01400000      -1.63204503      -1.41595232      -0.95382220       0.60479409
H        9.68487131       5.17407966      38.65850225        0       0.01715220      -0.22306397       0.53780762       2.01400000       0.06949702       0.37719842       0.45919900       0.63593280
O       13.77194196      10.76308657      28.31997962        0       0.95346050      -1.56232762       0.09297137      15.99900000       1.19994562      -1.19345861      -0.46427746      -1.22890282
H       14.19608226       9.86659155      28.12297361        0       0.28115387      -0.13782876      -0.01455852       2.01400000      -0.65772746       0.92407684      -0.27364703       0.60099411
H       13.02289877      10.56346189      28.88914903        0      -0.20941574      -0.16750078       0.37577041       2.01400000      -0.80479012      -0.06778749       0.65650484       0.61764282
O        1.52647522      13.76767805      14.26749761        0      -0.96233908      -0.74712786      -0.22130375      15.99900000       2.62843334      -1.52737045       0.02414274      -1.19750369
H        2.15169449      12.99865964      14.53833284        0      -0.11532100       0.17086211      -0.33310067       2.01400000      -0.74314794       1.72359845      -0.93041343       0.59260947
H        0.75167882      13.54450270      14.74388089        0       0.13854762       0.19584216      -0.21495903       2.01400000      -1.61706268      -0.00932912       0.87978902       0.57037550
O       14.74367612      17.27665794      22.51233022        0       0.70779266      -0.22362251      -0.41959609      15.99900000       0.03372948      -0.85403288       0.06123527      -1.29315567
H       14.46729461       0.66177473      22.06626617        0      -0.32711074      -0.00289906      -0.41709768       2.01400000       0.23307855       0.11678427      -0.17968357       0.64574593
H       14.86123186       0.03428993      23.47388917        0      -0.04121449      -0.05806983       0.03384444       2.01400000      -0.01827922       0.18890042       0.07956914       0.69562906
O       14.84269078      14.41240678      25.04204276        0       0.43473318       1.21016164       0.52977331      15.99900000      -0.22610596       1.04786036      -0.34670698      -1.25168586
H       14.25991394      15.24023537      24.83084461        0      -0.09690042      -0.23588067      -0.22863444       2.01400000       1.30285429      -1.71074129       0.30338394       0.60831958
H        0.47914441      14.27167664      24.39159152        0      -0.18828987      -0.05979033       0.17292787       2.01400000      -0.76700404       0.66261260       0.07248579       0.61202812
O        3.17947937       6.64284294      15.27922446        0       1.24348336       0.69946806       1.57245247      15.99900000      -0.84732729      -2.51226126       0.52390840      -1.29261291
H        3.33563114       7.55095563      15.21352845        0       0.20525202      -0.23898721       0.28197132       2.01400000       0.92887332       2.53738362      -0.13013875       0.60694897
H        3.95274602       6.12436762      14.93548274        0      -0.01987347       0.16725133      -0.09404051       2.01400000      -0.01807018       0.27167644      -0.26385851       0.67550921
O        7.45168480      14.35367051      39.51901422        0       1.13525884      -0.88393419      -1.14501756      15.99900000       0.83283591      -0.99996813       0.96038011      -1.22565544
H        6.81014110      13.63942544      39.48845913        0      -0.37643565      -0.01212632      -0.30467352       2.01400000      -0.32845182      -0.46876247       0.44966317       0.60484028
H        7.07114288      14.91429866      38.87172866        0       0.27407999       0.24502830      -0.03577027       2.01400000      -0.75767932       1.54271086      -1.16924121       0.61892557
O        0.57255900       5.78632423      40.63632108        0      -0.72877358      -0.61663475       0.26738123      15.99900000       0.40814999      -1.32260538       3.83680213      -1.17738068
H        0.59841492       6.62285079      40.22890197        0      -0.15855036      -0.08106966      -0.12125989       2.01400000      -0.31520584       1.89042442      -1.09980384       0.59784740
H        0.71645567       5.97900175      41.64984011        0      -0.09133359      -0.02791030      -0.31956516       2.01400000       0.10683503      -0.62979200      -2.85254278       0.60912830
O        9.95922226       2.67487153      23.50069038        0      -0.84721411       0.00198756      -0.50317532      15.99900000       1.13021857      -1.87606181       0.25021170      -1.25184834
H       10.42017421       2.57159144      24.38249751        0       0.64295168       0.23976029      -0.11344870       2.01400000      -0.56665896       0.65548762      -0.46162764       0.63090527
H       10.04341232       1.73442960      23.13397759        0       0.12994400       0.23941608      -0.11001909       2.01400000      -0.04936672       1.14390419       0.06613852       0.62962162
O        0.07795316      14.77214240       9.74566053        0       1.61600174       1.07545231      -0.95990013      15.99900000      -0.42531574       0.09120892      -0.14816103      -1.21735454
H       14.87378007      15.62619419       9.37596692        0      -0.33495753       0.20728888      -0.52058963       2.01400000       0.37577998      -0.55002456       0.28079091       0.62563199
H       14.55319249      14.53871806      10.46127863        0      -0.09503917      -0.00275506       0.29779345       2.01400000      -0.69121330       0.08665710      -0.27728046       0.65981001
O        3.80155066       2.58750794      40.55817685        0       0.15641241      -0.25179660      -1.27975672      15.99900000       0.07895610      -0.09765602       0.26449564      -1.18611538
H        3.03079399       3.18200226      40.66202738        0      -0.25541352       0.22783900      -0.04526952       2.01400000       0.60697837      -0.23307745       0.34856122       0.60552156
H        4.62386443       3.06187765      40.79731109        0      -0.09108140      -0.08420011      -0.16227090       2.01400000      -0.56536963       0.21212187      -0.24555424       0.58590239
O        6.56166863       4.78714661      12.26498558        0       0.10691976      -1.02363619      -0.45103535      15.99900000       0.72178451      -0.91475647       1.27818760      -1.30690026
H        5.90003008       5.12478975      11.69124851        0      -0.31143191       0.40502485      -0.21554194       2.01400000      -0.89361149       0.46482788      -1.10147354       0.53317261
H        6.53817348       3.74045248      12.21831100        0      -0.04040478      -0.00271595       0.03232978       2.01400000       0.32664225       0.81314417      -0.17539014       0.68348300
O        9.55712085      12.80155153      15.27436123        0       0.75572471      -0.07111331       0.37020902      15.99900000      -0.97335369       1.86965131      -0.90936992      -1.24765730
H        9.76000434      12.21293724      16.00450166        0      -0.14621701       0.13066161      -0.00122410       2.01400000       0.23163908      -1.38072591      -0.00061302       0.66123992
H        8.92252800      12.38914491      14.63330417        0      -0.49004096      -0.10932031      -0.04395006       2.01400000       0.95306217      -0.37975655       0.79953599       0.62420321
O       10.01211130      14.91715812      22.96262391        0      -0.41792270       0.36405874       0.98054078      15.99900000      -0.05584125       0.47421475       0.93956515      -1.19830668
H       10.17865335      14.76936867      22.01466599        0       0.07464190      -0.17521453      -0.10625363       2.01400000      -0.33704273      -0.20344605       0.46250526       0.64370483
H        9.05917238      15.05042300      23.17372963        0      -0.33667189       0.27189548      -0.45600452       2.01400000       0.74117932       0.05454060      -1.04176965       0.60354161
O        6.36304517      10.88538946      38.04511149        0      -0.37592328       0.55892350       0.20908829      15.99900000      -0.47855174       0.25813642       0.04261222      -1.25036561
H        6.91262565      10.75675361      37.26192600        0      -0.10217121       0.26334382      -0.18397446       2.01400000       0.13380837      -0.13777385       0.41176085       0.61497962
H        6.75528447      10.60843963      38.89350756        0       0.16034877       0.12590406      -0.14289367       2.01400000       0.47344021      -0.11698155      -0.01740728       0.63109094
O        3.98669549      11.99952207      38.20307113        0       0.36665309      -0.19887050       0.06446493      15.99900000       0.89252131      -1.55877041       0.06646818      -1.24135482
H        3.45464447      11.17850960      38.32071285        0      -0.14283058      -0.01717927       0.03564744       2.01400000      -0.11079229       0.51639548      -0.03539628       0.59943569
H        4.93062305      11.57040409      38.26013827        0       0.17982723      -0.08887814      -0.09318798       2.01400000      -1.23118868       1.00681262      -0.57407936       0.67934239
O       12.63866576      16.12225085      24.82359972        0      -0.97243061       0.01170995       1.16270833      15.99900000       0.55603363       0.67672609       0.19100196      -1.18270874
H       12.09707550      15.75104894      25.52825362        0       0.37903826       0.28900890      -0.08751755       2.01400000      -0.28887091      -0.30905629       0.90180067       0.62230182
H       12.40204694      15.59697731      24.06938369        0       0.10068241      -0.02993220      -0.08612668       2.01400000      -0.38422953      -0.36530060      -1.20746685       0.58197409
O       14.31618794       2.37029841      42.24542835        0      -0.29843809       0.86778151       0.74709687      15.99900000      -0.53747664      -0.26974427       0.61473685      -1.32994938
H       13.52563824       2.14898747      41.67888793        0      -0.73885359       0.22912080      -0.29985105       2.01400000       0.57050454       0.23533006      -0.41047711       0.65905577
H       13.87878378       2.69321872      43.08172373        0      -0.38056203      -0.46391084      -0.31907032       2.01400000       0.51800140      -0.18471132      -0.36107476       0.67759842
O        8.45246119      14.90392511      36.62381672        0       0.74489469      -0.75947252       0.23325445      15.99900000       0.54041143      -0.16504057       0.46846860      -1.29245532
H        8.99245159      15.21143220      35.87505725        0      -0.09857284       0.01039787      -0.12895946       2.01400000      -0.11569083       0.38377247      -0.40282225       0.61251658
H        9.06371699      15.08348265      37.43273561        0      -0.19511113      -0.08592425      -0.40099590       2.01400000      -0.50798383      -0.47694977      -0.59585989       0.65582460
O        8.54929692      11.80134173      36.44953291        0      -0.33160277      -0.34060480       0.55880247      15.99900000       0.48697922      -0.26872583      -0.86262872      -1.19541419
H        9.09562577      12.12297595      35.70416203        0      -0.20086451       0.08604970      -0.39891908       2.01400000      -0.31307190      -0.19979053       0.56062989       0.59106404
H        8.38773573      12.55839200      37.01445182        0       0.27831654      -0.40503213       0.54299402       2.01400000      -0.07271770       0.57238070       0.21792648       0.62865525
O       12.49922725      17.19673457      34.86585773        0       0.92974983      -0.00800380       0.34186809      15.99900000       0.75045198      -2.41690857      -0.72882705      -1.27941930
H       12.46477071      16.47617632      35.55514768        0      -0.44980330       0.27662199       0.14474346       2.01400000       0.07965884       0.81226014      -0.17391739       0.62874585
H       12.07529419       0.50176256      35.23648029        0       0.35754243      -0.14794841       0.20906496       2.01400000      -1.06963877       1.94068481       1.08917177       0.62697834
O        0.59821108       6.99293693      14.77666332        0      -0.62000943       0.54919913       1.49757364      15.99900000       0.61247955      -1.16445069      -0.16094838      -1.17687941
H        0.21640783       6.23117521      14.25035833        0      -0.08878733      -0.08722465       0.09820022       2.01400000       0.78545393       0.91723287       0.89838999       0.57026935
H        1.50539542       6.66682862      15.13120903        0      -0.02417852      -0.02935305       0.13686782       2.01400000      -1.35975663       0.33453464      -1.00769843       0.62301093
O        2.18719976       4.28215237      38.49024928        0      -0.49184377      -1.51650843      -0.32571590      15.99900000       1.30478970      -0.21276968      -1.34906437      -1.24218225
H        2.12006817       4.59449829      39.36688197        0       0.02389922       0.09908233       0.09166687       2.01400000      -0.41392989       0.59484972       1.85276919       0.58660173
H        1.28978348       4.22871316      38.14874801        0      -0.30221382      -0.27953421      -0.19550432       2.01400000      -0.97619074      -0.07539878      -0.15624764       0.62288731
O        9.46252244       1.68899679      27.83902943        0      -0.49802957      -0.42901484      -0.71379150      15.99900000      -1.38047827       2.02850537       1.19042667      -1.21631479
H        8.82586186       2.43356205      28.13901102        0       0.18396752       0.42031945      -0.12447821       2.01400000       0.28941594      -1.14066941      -0.67643421       0.62312585
H       10.06775556       1.74222404      28.61394978        0       0.19813497      -0.21152411       0.29120984       2.01400000       0.77671426      -0.46566987      -0.17100185       0.66753578
O       14.09999089      10.48239728      37.34518390        0       0.24057342       1.70457537      -1.23667460      15.99900000      -0.12366950       1.19598643      -0.76643494      -1.19007897
H       14.41933032      11.42822929      37.26594685        0       0.10356987       0.38045406      -0.02030278       2.01400000      -0.02264765      -1.33333010       0.45537670       0.61805058
H       14.60249842      10.02764779      38.04062508        0      -0.03650099       0.14427281       0.04252999       2.01400000       0.05066522       0.76147864       0.14906154       0.65972948
O        2.01786725       2.69206472      27.89757539        0       0.89893181       0.16793611      -0.67021089      15.99900000       0.61300982      -0.15754710      -0.56943027      -1.23747063
H        1.38551733       2.77831611      28.60335328        0       0.05209710      -0.21022413       0.45482361       2.01400000      -0.59010922      -0.05506002       1.23228605       0.63478839
H        1.56846546       3.09060642      27.15027134        0      -0.04032033       0.39245589      -0.16359472       2.01400000      -0.10026812       0.26109089      -0.94775938       0.60581684
O        7.97799904       8.10118381      38.70790091        0      -0.81251531      -0.44277436       0.29000802      15.99900000      -0.01503269      -0.31666389      -0.41157760      -1.20056581
H        8.62956835       8.47002382      38.06093219        0      -0.09998987      -0.51179337       0.21309048       2.01400000       0.02215483      -0.06968826       0.70811684       0.61092061
H        8.44752855       7.62217209      39.40991068        0       0.39467798      -0.25506255      -0.19995927       2.01400000      -0.04742860       0.33462672      -0.35988891       0.56681967
O        1.25351081       1.75538859      15.41336286        0      -0.31257732      -0.26962461      -0.52589348      15.99900000      -1.92785588      -0.13234533       0.85238522      -1.20068681
H        1.62700062       2.20589053      16.23302389        0       0.02974885      -0.15294378      -0.03830617       2.01400000      -0.42735033      -0.09847771      -0.16990161       0.63941580
H        0.27606028       1.50509800      15.62444541        0      -0.18048604       0.04961664       0.12858034       2.01400000       1.82751214       0.59313633      -0.22917092       0.59152454
O        2.89965395       6.23089725      30.36416649        0       0.56529357       0.63515107      -2.26528409      15.99900000      -1.75163782       0.20927368       0.03798387      -1.27053821
H        1.92606883       6.54434496      30.33272500        0       0.16004178      -0.28989919      -0.08682218       2.01400000       1.55601820      -0.55549830       0.38962790       0.62906802
H        3.31588367       6.65370330      31.16620136        0       0.04518494      -0.26109011       0.11673324       2.01400000      -0.14026417      -0.20583661      -0.31621818       0.70445484
O        3.42118809       0.77033923      42.72374255        0      -0.44985889      -0.11744214       0.75277133      15.99900000       0.39563077       0.32907145      -0.04361081      -1.19120300
H        2.46921096       0.60115496      42.83017918        0      -0.10229868      -0.04807278       0.00393370       2.01400000      -0.02126942      -0.06204307      -0.41357090       0.59212899
H        3.58966187       1.14877729      41.82364631        0       0.11319916       0.23414038       0.40856171       2.01400000      -0.73223124       0.15534178       0.46306889       0.59532380
O        5.25165488       9.62277916       9.98359516        0      -0.49941884       0.44602427       0.58129651      15.99900000       1.21693625       1.06661301      -1.15199743      -1.24745512
H        4.68201733       9.63532274       9.18038399        0      -0.01735517       0.12154548       0.14047380       2.01400000      -0.36341347      -0.16621277       0.41102280       0.65873146
H        4.85416374       9.11877200      10.67081469        0      -0.20888154       0.19063783      -0.20233646       2.01400000      -0.84489516      -0.78351136       0.99735852       0.59759927
O        3.34150582       5.24815191      17.68675164        0      -0.42757085       0.06534357      -0.54936696      15.99900000       1.18485275      -0.05130869      -1.27663852      -1.24173021
H        3.37443873       5.59629207      16.73965438        0       0.01317783      -0.06938214       0.01497401       2.01400000      -0.47939446       0.07476881       1.24387907       0.61490983
H        4.28962091       4.94066609      17.83131585        0       0.62154474      -0.53407041       0.04909504       2.01400000      -0.38602397       0.40829225       0.38736702       0.64219111
O        4.82045572       4.05041431      36.61136847        0       0.23846937      -1.07297958       0.65752772      15.99900000       0.12901368       1.64045344       1.41449254      -1.19166708
H        5.48026742       4.60974415      37.12662351        0      -0.16083174      -0.23182899      -0.23969368       2.01400000      -0.94994635      -0.54508121      -0.25727130       0.60363162
H        5.35372696       3.81235402      35.88172470        0       0.55135092       0.18393993      -0.22172234       2.01400000       1.09011063      -0.58479065      -1.76842724       0.56564146
O       10.82889457       1.24824609      17.45748233        0       1.20490600       0.12005924      -0.67621337      15.99900000       0.90186252      -1.18506720      -0.20553732      -1.24655807
H       11.46677689       0.49576472      17.65817889        0       0.08228825      -0.17678595      -0.17645888       2.01400000      -0.73984081       0.76623096       0.10908202       0.63503230
H       10.31826283       0.83996749      16.74138420        0       0.27340887       0.21119915      -0.09210735       2.01400000      -0.39815578       0.21917138      -0.08794580       0.61668187
O        4.58311067       8.68577924      29.63281055        0       1.27574055      -0.58861820       0.88249697      15.99900000      -0.06239372      -1.16961206      -0.87869186      -1.23271656
H        4.28191176       7.90504471      29.02065009        0       0.47818091       0.02126433      -0.02366930       2.01400000       0.34731275       1.59352683       0.96457108       0.59648776
H        5.39826236       8.34102823      30.06138839        0      -0.13906564       0.09561553      -0.19092638       2.01400000      -0.51029537       0.44712408       0.17727788       0.59715992
O       10.90238793       0.17343477      22.39254159        0      -0.11942468       0.51713085      -0.57207962      15.99900000      -0.28012985      -1.08810853       1.99249437      -1.23185205
H       10.90473926      17.27129138      21.51826005        0      -0.45572224      -0.50294211      -0.15340275       2.01400000       0.05307528       0.00168401      -2.03671700       0.61033332
H       10.78666907      16.70235804      22.81565762        0      -0.43198080       0.05236612       0.11253140       2.01400000      -0.09321486       1.18916107       0.16335655       0.63850152
O        9.81530347      12.40807964      19.20941412        0       1.03412001       0.83649303       0.90156258      15.99900000      -0.94038164       1.37214856       0.40266494      -1.21288335
H        9.24055626      13.16652835      18.88956056        0      -0.07495816       0.33050961      -0.00311684       2.01400000       0.50060020      -1.00695046      -0.33433813       0.61400646
H       10.14049345      12.75114729      20.07504646        0       0.27174353       0.14084813       0.11377356       2.01400000       0.29049919      -0.59651994       0.35112783       0.62418461
O        5.68006335       1.42473378      28.73406566        0       0.07943964      -0.30650609       0.40709748      15.99900000       0.06729829       0.30839806      -2.92744988      -1.28361309
H        5.09308500       1.67806567      27.87768533        0       0.30055510       0.50108655       0.42762006       2.01400000       1.72475692      -0.29926109       1.43623520       0.65124846
H        5.03649375       1.20598602      29.38686775        0      -0.22905474      -0.13088364       0.04198777       2.01400000      -0.66430880       0.09672609       1.40592246       0.61440903
O       13.31149783      12.38624059      26.09087482        0       0.76520504      -0.69694334      -0.27544835      15.99900000      -0.94253051       0.35392785      -3.15029045      -1.33012140
H       13.50621751      12.16555105      26.95648533        0      -0.02293571       0.20535731      -0.07436861       2.01400000       0.59946053      -1.16015430       3.19522449       0.63325769
H       13.99631744      12.99746121      25.78459478        0       0.42032893       0.27563892       0.38740125       2.01400000       0.22634152       0.72466924      -0.37577469       0.65878445
O       10.90164462       2.90191975      26.09735741        0      -1.59341664      -0.21180814       0.89732902      15.99900000      -0.43944854       0.99282776      -0.18473760      -1.29143858
H       10.90061435       3.83928633      26.39349374        0      -0.14984853      -0.05203719      -0.33473535       2.01400000      -0.14610925      -0.28340478       0.04415024       0.62528086
H       10.29892623       2.40277128      26.71380517        0      -0.47982642      -0.68096338      -0.22204110       2.01400000       0.10097583       0.17064529       0.05170370       0.66901857
O        5.26050933       5.26506360      14.74814153        0       0.29371779       0.88620413      -1.03244276      15.99900000      -0.53360634       0.25796166       0.38098410      -1.28392982
H        6.00596608       5.80296166      15.09621045        0       0.25164380       0.20696778       0.31926737       2.01400000       0.34399035       0.31028799       0.15717880       0.66825670
H        5.50857593       4.97219822      13.87462485        0       0.16206813      -0.69492753      -0.48190596       2.01400000       0.58337899       0.03953311      -1.25839337       0.62539446
O        9.30048668       5.56756718      12.24706396        0       1.07447703      -1.10435559       0.06360294      15.99900000       0.18327302       0.85609483       0.47466826      -1.27036226
H        9.53860013       4.78399995      11.79590020        0       0.52230946      -0.07748535       0.07161221       2.01400000       0.62832345      -1.57170652      -0.95652526       0.61991000
H        8.36109686       5.44353233      12.40027729        0       0.08168988      -0.34094539      -0.10774158       2.01400000      -1.18550770      -0.02745594       0.25658251       0.67420077
O       12.40771637       5.89958683      17.67350291        0      -0.15739329      -0.09247443       1.11575992      15.99900000       1.13324751      -1.23644675      -0.23196965      -1.28982329
H       12.02723266       6.75379281      17.49381516        0       0.09598766      -0.17888176      -0.17448998       2.01400000      -0.88533025       1.26986264      -0.25826982       0.63879436
H       12.02452457       5.54162864      18.50249165        0       0.35857582      -0.05597895       0.50240472       2.01400000      -0.25761984      -0.15806551       0.17336354       0.64294410
O        9.59850788       5.83646270      30.50647113        0       0.15693802      -0.43920645       0.85051729      15.99900000       1.41586708       0.78219209      -2.28325838      -1.18923867
H        8.93135180       5.45869122      31.04835987        0       0.07108888       0.23807852       0.15055895       2.01400000      -1.17030012      -1.29501733       0.64379240       0.59863931
H        9.57569593       5.47097181      29.56534537        0      -0.15560990       0.03841980      -0.58355923       2.01400000      -0.06965686       0.64705993       1.59229801       0.58942950
O        6.70681344      15.72876829      15.78054582        0       0.52642939       0.18046954       0.48522374      15.99900000      -1.66620595       1.44145487       0.17048066      -1.23254824
H        7.35406534      15.16875836      16.20409638        0       0.05046351       0.05467801      -0.30212460       2.01400000       0.28713109      -0.31280086       0.96343934       0.62106574
H        6.11517222      16.18132912      16.46288213        0       0.50166941      -0.06486416       0.36621927       2.01400000       1.32702719      -0.98949989      -1.19319384       0.57566392
O        2.64299342       5.65683811      12.01945281        0       0.70635312       0.38530619      -1.45067314      15.99900000       1.59104431      -0.15604684       0.15864341      -1.24232984
H        1.71615187       5.81536822      12.16650458        0      -0.08132741      -0.09756360      -0.22512820       2.01400000      -1.31468852       0.40100912      -0.19810009       0.64367974
H        2.68872342       4.84982961      12.55467300        0      -0.44587805       0.09645360      -0.07171330       2.01400000       0.47515920      -0.51851426       0.04705031       0.60944802
O        5.09899064      11.07498252      19.23250325        0       1.80666797      -0.05827433       1.04435930      15.99900000      -0.03067369      -1.79467019       0.96974081      -1.29122257
H        4.36302491      10.53871678      18.80254227        0      -0.04132279      -0.09134453      -0.24876355       2.01400000       0.19590473       0.63125968      -0.55542738       0.69061458
H        5.41551322      10.40487992      19.89667247        0       0.35579435       0.16433121      -0.21206368       2.01400000       0.02304430       1.01094016      -0.50083151       0.58070767
O        6.60967236      11.39089934      30.87433416        0      -1.90990502      -0.53597716      -0.00683691      15.99900000       1.03128874       0.70994781       0.54360406      -1.24491572
H        7.04773690      12.17619429      31.31736542        0       0.06347703      -0.13959319      -0.24154302       2.01400000      -0.48963947      -0.89612654      -0.36060804       0.60078055
H        5.65858743      11.53009599      31.00674563        0       0.32942420       0.09359495      -0.08429698       2.01400000      -0.60031839       0.17344447       0.06430635       0.62246495
O        5.97570610       0.96505405      23.69193697        0       0.96347435       0.27786588       0.41145990      15.99900000       0.87452237      -0.05185274       0.65409059      -1.21692920
H        6.66034631       1.67977738      23.70058020        0      -0.25583948      -0.19357252      -0.18942746       2.01400000      -0.52691407       0.10534818      -0.24753680       0.57091773
H        6.28879697       0.41010087      24.45169877        0      -0.33523639      -0.30248153      -0.13008327       2.01400000      -0.43182038      -0.18928538      -0.31471046       0.58149737
O        7.33264653       6.36936732      15.87640285        0       0.20443410       0.07447102      -0.53931803      15.99900000      -0.38191812      -1.22044993      -0.68683851      -1.29507768
H        7.15304891       6.80054848      16.71646481        0       0.11901687      -0.10365716       0.03717660       2.01400000       0.01871653      -0.02654188       0.72266054       0.65264344
H        7.55456677       5.39125655      16.02339135        0       0.12737362      -0.12418980       0.07975730       2.01400000       0.29397599       1.06054486       0.74314376       0.70956326
O       13.97868761      13.31418802      42.06642540        0       0.87664918      -1.21581678      -0.13006566      15.99900000      -0.19673319      -0.29220810      -0.75672799      -1.26414514
H       14.57229212      13.55474041      42.79739106        0       0.69324754      -0.09348313       0.14045452       2.01400000      -0.09648436       0.40713600       0.26301198       0.64773715
H       14.57357877      13.15014205      41.30758893        0      -0.05742037       0.23436578      -0.27010851       2.01400000       0.00842359      -0.36645839       0.23311216       0.62068617
O        9.76337968       6.50785451      20.91364174        0      -0.09076037       0.49430838      -1.04986946      15.99900000      -0.12964482      -1.23011788      -0.01798346      -1.29465556
H        9.70748778       6.57960439      21.88006530        0       0.03439203      -0.03473123       0.00014443       2.01400000      -0.12899099      -0.06826005       0.49382555       0.63734466
H        9.86451288       7.38604440      20.57703026        0      -0.15993244      -0.12525769       0.09225425       2.01400000       0.05670408       1.34541369      -0.65041316       0.61736691
O       15.08554392       8.31252608      27.83725375        0       0.67805631      -0.47335122       0.41368359      15.99900000      -1.31277683       0.18039018       0.99954203      -1.21533060
H        0.75091067       8.36651143      27.24881796        0       0.15497613       0.08363196       0.25026422       2.01400000       0.86127778       0.04859234       0.60561697       0.61669958
H        0.11229942       8.18328123      28.82286206        0       0.20533039       0.26280462       0.04414839       2.01400000       0.76501846      -0.35602990      -1.33366952       0.61707342
O        4.14417917       7.02244678      32.52904655        0      -2.24330488      -0.10075942       0.37094119      15.99900000       0.56073034       0.11269151       0.99356722      -1.23268390
H        5.11191019       7.19014124      32.40492740        0      -0.07907504      -0.26197376      -0.06247760       2.01400000      -0.96605636      -0.28050071       0.30125545       0.61619675
H        3.93445702       6.78642426      33.48665890        0      -0.30687267      -0.22818773      -0.42514271       2.01400000       0.65117664       0.47217876      -1.39612736       0.63127303
O        1.12250978       8.54482187       9.95865799        0      -0.30475278       1.52122815       0.15074146      15.99900000      -0.67996265      -0.23465176      -0.48048789      -1.27802944
H        1.51126875       7.75634342       9.51654502        0       0.78232164      -0.30634821      -0.05445400       2.01400000      -0.49608437      -0.26864983       0.12425843       0.66383058
H        0.17355111       8.60136524       9.64058961        0      -0.06736652      -0.18036228       0.15938880       2.01400000       0.93316436      -0.04000115       0.65194229       0.65152258
O       13.00828015       9.15340514      41.93184865        0      -0.12921505       0.77696414       0.46347305      15.99900000      -0.55206036       0.27567283      -0.04001545      -1.21416616
H       12.44092821       9.89649267      41.63775871        0       0.05363188       0.25697939       0.00117496       2.01400000       0.08725287       0.34423099      -0.01108405       0.60662031
H       12.56665791       8.93621657      42.77214496        0       0.09902797      -0.14162141       0.08667696       2.01400000       0.15734784      -0.24657349      -0.10926969       0.62940663
O       14.54016066       9.47127077      18.10392613        0       0.61234200       0.62336004       0.68947931      15.99900000      -0.51451351      -0.34990397       0.27438784      -1.24854755
H       14.57022095       8.50956162      17.92071058        0      -0.24695719      -0.33437054      -0.02129270       2.01400000       0.32942970       0.39667510       0.18796183       0.58844799
H        0.13195789       9.93481008      17.61261513        0      -0.28577580      -0.02888557      -0.38144243       2.01400000      -0.05967484      -0.02815855      -0.22456398       0.60619128
O       12.29961307      15.40004235      36.96795750        0       1.33381522      -0.50189805      -0.73631362      15.99900000      -0.47799807       0.46822087       0.18233474      -1.30328083
H       12.45298964      14.71059093      36.28185158        0       0.13556675      -0.35059097      -0.16263775       2.01400000       0.46610657      -0.55973000      -0.11969795       0.70051748
H       13.17853928      15.46854418      37.37907423        0      -0.04753869       0.03938821       0.38708962       2.01400000       0.23635210       0.09968270       0.42554437       0.62885314
O        9.95618373       1.27785574      40.77152025        0      -1.69747847       1.32419177       0.39163975      15.99900000      -0.69205706      -0.06388987       1.99018463      -1.21678269
H       10.29938921       0.46881134      41.21132639        0       0.15138505       0.06918552       0.29820240       2.01400000      -0.09558964      -0.36294074      -0.78110566       0.63328940
H        9.39412753       1.59511325      41.54181374        0      -0.04553211      -0.04077302       0.22804958       2.01400000       0.60573959      -0.14255749      -0.87290020       0.64664805
O       14.22887607       0.30391116      13.02448377        0      -1.65520659      -1.38382117       0.90906376      15.99900000       1.30564083       1.46671139      -0.77891836      -1.25800765
H       13.92457213      16.85948180      13.01488053        0       0.14019996       0.03780375      -0.47220844       2.01400000      -0.78570809      -1.81711032       0.19791476       0.60993719
H       15.06918577       0.31302552      12.46080086        0       0.11167061       0.29563972       0.41294771       2.01400000      -0.77253575       0.40395467       0.52521271       0.62511349
O       11.05309592      10.11804786      12.83124896        0      -0.50274393       0.23016964       0.92145893      15.99900000      -1.43903000      -0.70271937       1.51191905      -1.30665207
H       11.75933178      10.55508588      12.37298396        0      -0.29693650      -0.27669422       0.04363965       2.01400000       0.97482804       0.43618530      -0.58580972       0.68365061
H       10.67148779       9.39454103      12.32574710        0      -0.03200425       0.13477299       0.04792848       2.01400000       0.12431295      -0.45916227      -0.62470173       0.62840843
O        6.20997388       1.27450790      14.53181120        0       0.10089035       0.55353655      -1.18068353      15.99900000      -0.43490020      -0.44925167      -0.66955627      -1.32174742
H        5.77165791       2.04182114      15.00637578        0       0.03094485       0.06605183      -0.19699145       2.01400000       0.39286401      -0.42181905       0.25133129       0.66359508
H        5.38502402       0.83992379      14.15037425        0       0.25552983       0.44157294       0.36919122       2.01400000       0.95420807       0.10221832      -0.03043893       0.61821407
O       13.11222972      15.16451354      21.86545710        0      -0.24273228      -0.13897256       0.81515900      15.99900000      -1.08264793      -1.56700692      -0.65523415      -1.20591915
H       12.76658115      15.43660751      21.00155084        0       0.14983505      -0.24039397       0.31049746       2.01400000       0.04438871      -0.07603894       0.48958113       0.58635020
H       13.56349225      15.90670918      22.21751013        0       0.25535086       0.37414228      -0.34585510       2.01400000       1.30443844       2.08932792       0.54972940       0.63610524
O        1.72090702       6.10328407       8.71844106        0      -0.39346200      -0.42265920      -0.28393232      15.99900000       0.29411585       1.10562378       2.32013127      -1.27508926
H        1.64271601       6.04164635       7.79354199        0      -0.19697348      -0.24704373      -0.09084714       2.01400000      -0.13152740      -0.86252098      -1.54693648       0.62209946
H        1.72772573       5.28059258       9.23179647        0      -0.52500507       0.08116029       0.33416942       2.01400000      -0.20544284      -0.15680615      -0.65549860       0.64053696
O       13.14292506      13.58561110      35.45389144        0       0.01063252      -0.22355496       2.73693810      15.99900000      -0.90350277       0.09613841       0.32858061      -1.27916849
H       13.99090529      13.50084357      34.97385491        0      -0.17697224      -0.06736009      -0.48495025       2.01400000      -0.20018013      -0.70411267      -0.25871444       0.67939460
H       12.42583058      13.08968803      35.01940351        0      -0.06980891      -0.14956458       0.50636249       2.01400000       0.78260025       0.10990553      -0.32489152       0.58849251
O       10.46940988       5.56526613      27.62392723        0      -0.28751020      -0.31426020      -0.08799930      15.99900000      -0.75864060       0.05700487      -0.73917504      -1.29525864
H       10.54000723       6.36012837      27.03982683        0      -0.17143476      -0.09055429      -0.14954570       2.01400000      -0.23963098      -0.61240262      -0.02534123       0.62956667
H       11.27268429       5.60757997      28.13477761        0      -0.24639934      -0.03279028       0.10758597       2.01400000       0.85667859      -0.08210888       0.84345322       0.60839099
O        2.32297991      16.95901488      14.64831485        0      -0.22370783      -0.67858557       1.03851681      15.99900000       0.65238613       0.61311115       0.31524819      -1.22946203
H        1.78376812       0.31441580      14.90712770        0      -0.31368477       0.36989679      -0.25466314       2.01400000       0.37363498       0.00839233       0.12139772       0.65013599
H        1.73119356      16.39580139      14.18230960        0       0.19973696       0.06372520       0.11038080       2.01400000      -0.99192646      -1.11072351      -0.28499494       0.58574891
O        9.96975495       9.69038276      37.38780058        0      -0.60125097       0.41400086      -0.04857340      15.99900000       0.35882548      -0.62016016       0.45863054      -1.27379978
H       10.42209839      10.12581235      38.15537014        0       0.07064086      -0.03496858       0.38060824       2.01400000       0.36491825      -0.20400975      -0.25629551       0.68301451
H        9.47033668      10.41163124      37.00296317        0       0.05268343       0.30625010      -0.16815380       2.01400000      -0.56497591       0.64231653      -0.34441713       0.61149019
O        5.47431197       0.25609946      39.16453922        0       0.41115400       0.69181374      -0.81069175      15.99900000       1.00640767      -0.44188564       0.25334141      -1.27405429
H        5.71759940      17.28949653      38.27625782        0       0.11564821      -0.01176233       0.30191365       2.01400000      -0.23764603       0.10096852       0.88415984       0.66723883
H        4.70942153       0.81953280      39.06963005        0       0.13669787       0.29241022       0.18029572       2.01400000      -0.65859009       0.62943968      -0.77406799       0.63826609
O       10.12041392       9.35485381      20.18135142        0       0.68413083      -0.24929796       0.01234489      15.99900000       2.55703931       0.93727923       0.29778608      -1.16800714
H       10.81991697       9.73447608      19.55971108        0      -0.41471915       0.44002986      -0.36908314       2.01400000      -1.42548921      -0.79340921       0.57073025       0.54211819
H       10.71192483       9.41457955      21.01683629        0       0.10137504       0.14620017      -0.02066636       2.01400000      -0.80655109      -0.29283551      -0.66250188       0.60547876
O       11.72492330       7.66956547      31.02221985        0      -0.80435258       0.25433813      -0.81550364      15.99900000      -1.66480694      -2.26346769       0.29554313      -1.18009329
H       10.85319776       7.29728979      31.37294416        0      -0.04172388       0.06381891       0.06787648       2.01400000       1.11015987       1.19179926      -0.45973464       0.60294771
H       11.88421208       6.83803944      30.48569875        0       0.01151263       0.10101079      -0.16750997       2.01400000       0.63240855       1.45267208      -0.06653851       0.61366105
O       10.14182840      14.87442210      38.49437162        0       0.26948432      -0.65521023      -0.11893493      15.99900000       2.15944899       0.33140032      -1.20439952      -1.24743593
H       10.00414414      13.95164347      38.68423550        0       0.22716284      -0.07187058      -0.15732456       2.01400000      -0.40842298      -0.76677384       0.63811684       0.61460769
H       11.02922319      14.84396163      37.94202506        0      -0.07389291       0.30560604       0.29736079       2.01400000      -1.20098210       0.72908936       0.80195916       0.65596819
O        8.61307156       1.22855201      36.68426799        0      -0.60569368      -0.14503114      -0.22078618      15.99900000      -0.66119268      -2.33207287      -3.36418468      -1.30452287
H        9.50488721       1.40416637      36.37093894        0       0.47545975      -0.17138804       0.17540088       2.01400000       0.54865926       0.65532233       0.56515816       0.65255886
H        8.35813517       1.60439211      37.48628449        0      -0.33651322       0.13120059      -0.08637795       2.01400000       0.21159400       1.38295153       2.23034773       0.64907444
O        6.76782663       5.85063242      37.35901280        0      -0.73974365       1.27035554       1.73416122      15.99900000       0.99792160      -0.53031169       2.29934473      -1.22713184
H        7.27374906       6.46697945      37.97779649        0      -0.44130995      -0.19794845      -0.22706321       2.01400000      -0.85085587      -0.37610196      -0.89947096       0.60623580
H        6.54816158       6.30854197      36.56477575        0       0.14699592       0.26432291       0.05978434       2.01400000      -0.05383243       0.99490704      -1.39049918       0.63638890
O       10.63732831      14.57024889      42.85377899        0      -0.08382830      -0.14795156       0.03148227      15.99900000      -1.59037112       1.61475256      -1.43800091      -1.22069860
H       10.73677960      14.91991314      41.86694860        0       0.19166558      -0.32399053       0.22306409       2.01400000      -0.13501439      -0.02432948       1.73457750       0.66108721
H       11.37209417      14.00743402      42.95777347        0       0.37469180       0.09028815      -0.00929045       2.01400000       1.39439767      -1.22512716       0.48525514       0.57046080
O       12.66200520       6.21948423      36.74667603        0       0.66336658      -1.78366835      -0.15219718      15.99900000      -1.17521992       0.59930596      -0.34254951      -1.20129204
H       12.02325116       5.60339901      37.13964537        0      -0.38413644       0.07890691       0.63928152       2.01400000       0.02959109      -0.04216940       0.05021942       0.56796855
H       12.04891861       7.02338581      36.48996230        0      -0.29561225       0.11401391       0.24135805       2.01400000       1.30079960      -0.40115737       0.41754020       0.65037298
O        4.14600961      16.12850089      40.95651566        0       0.29017098      -0.44129368       1.44189329      15.99900000       0.04560120      -0.77613335      -2.41291864      -1.26411891
H        4.28307339      16.49609445      41.78798868        0      -0.02862955      -0.24836363       0.28064628       2.01400000       0.05219133       0.93158935       3.00578603       0.61665750
H        4.80932823      16.62119347      40.41353883        0       0.02360120       0.02438101       0.19191645       2.01400000      -0.09027760      -0.10834768      -0.75139508       0.64807487
O        5.19283997       1.63238154      20.81402713        0      -0.16012515      -0.04852320      -0.63156415      15.99900000      -0.47535829       0.37251074      -1.28420055      -1.26836896
H        4.81424679       2.50515782      21.04994788        0       0.34519266      -0.20159713      -0.06300427       2.01400000       0.08751233       0.02722656       0.34245692       0.66072768
H        5.65445623       1.28763517      21.55997212        0      -0.19845500      -0.21440032      -0.08607869       2.01400000       0.42560963      -0.40676595       1.21370235       0.62207478
O        4.04311583       3.20989730       9.76266009        0      -0.63671253       1.41940116       0.52446967      15.99900000      -0.18659777      -0.22474332      -0.79327340      -1.21987629
H        4.39429688       3.35138456      10.63766660        0      -0.11927161       0.29965228      -0.24018674       2.01400000      -0.06480399       0.13023880       0.58213931       0.59288192
H        3.10587445       3.47352381       9.78754769        0      -0.47364846      -0.49907230      -0.35002202       2.01400000       0.12917643      -0.06312146       0.34934656       0.63468784
O        1.81634021      17.19283961      27.02627198        0      -0.84536930      -0.02793561      -0.93405507      15.99900000       1.01059224       1.37052479      -0.85909618      -1.17651343
H        1.41501118      17.13270387      27.88726629        0      -0.11613080      -0.12387092       0.10733992       2.01400000      -0.36304050       0.37191945       1.03236654       0.63802874
H        2.37961003       0.56400675      27.04541322        0      -0.13103846       0.23778847      -0.15978793       2.01400000      -0.71764079      -0.50096308       0.27460517       0.59933084
O       12.79939327       1.41180322      25.70260565        0      -1.27781194       0.12103235      -0.20637948      15.99900000       2.36391912      -1.13188693      -0.16024967      -1.32381165
H       12.48038152       0.58644980      25.33802697        0      -0.00584257       0.08530599       0.00047380       2.01400000      -0.48222000      -0.64655426      -0.49042825       0.62220889
H       12.12571862       2.07187604      25.76698447        0      -0.54641836       0.23986270       0.11589472       2.01400000      -1.59020345       1.40542003       0.17078307       0.72326040
O       14.89145652       1.28798954       9.05249402        0       0.45515628      -0.25130619      -0.88161845      15.99900000      -2.76487002       1.03907761      -0.17812305      -1.25369167
H        0.54784746       1.10699204       9.54680987        0       0.43030469      -0.19420039      -0.16508266       2.01400000       2.04272819      -0.65620909       1.57280101       0.62697113
H       14.14428080       1.35222566       9.76188491        0       0.04961800      -0.30064001      -0.02037656       2.01400000       0.61602603      -0.49694369      -1.45688998       0.64799047
O        9.66749813      10.80187512      17.02968621        0       1.15786063       0.44910851       0.23473215      15.99900000      -0.35749560      -0.22817756       0.91859168      -1.18432355
H       10.23678538      10.04173325      16.76715652        0      -0.02844748      -0.01873540       0.13645613       2.01400000      -0.18158372       0.63165288       0.77969434       0.57710683
H        9.73008224      11.03295153      18.00640954        0       0.20892396       0.33767076      -0.27679856       2.01400000       0.30173656      -0.37140777      -1.34652423       0.60123068
O        2.22343949      12.65398917      20.27112012        0      -0.24284065       1.25962757      -0.56821851      15.99900000      -2.41391030      -1.65099464      -1.39990222      -1.31642854
H        2.95950432      13.20323172      20.46807334        0       0.13901327       0.30117061       0.49070878       2.01400000       1.57741300       1.27706485      -0.40085277       0.68335485
H        1.85882094      12.71750590      19.30086836        0      -0.21962366      -0.08840599      -0.47056667       2.01400000       0.97351958       0.61692457       1.81833580       0.63814503
O        3.75130210      11.99560084      13.83622641        0      -1.23293207       0.62574156       0.10982850      15.99900000       1.55981452      -0.26621563       2.82002901      -1.29876888
H        4.70761295      12.08933343      13.61955656        0       0.09267213      -0.10976966      -0.12933391       2.01400000      -0.68683893       0.32911669      -0.55395404       0.62744874
H        3.18426632      11.90057500      13.08721895        0      -0.27828111       0.20618570       0.19060463       2.01400000      -0.54107908      -0.21028879      -2.01650525       0.68380606
O        2.55660039       7.05721349      43.14905111        0      -0.60448128       0.70286427      -0.64730915      15.99900000       0.60588853      -2.36697540      -0.24685059      -1.22890830
H        2.43745489       6.08686536      43.31607895        0      -0.25143131      -0.36277798      -0.23994627       2.01400000       1.03636569       0.54923876      -0.44603750       0.59283668
H        1.69471078       7.28118956      43.43825379        0      -0.12927573      -0.33079791      -0.06631709       2.01400000      -2.05143261       1.69900205       0.62320221       0.65214431
O        1.67242294      16.85019578      40.21921658        0      -0.08536632      -1.49293005       0.18953521      15.99900000      -0.10125606      -0.16759251       0.01884803      -1.24353695
H        2.58062009      16.56465407      40.49749508        0      -0.24659458       0.37695022      -0.39727621       2.01400000      -0.02591612       0.11569801      -0.34288439       0.64429086
H        1.72943543      17.33897898      39.39365574        0      -0.34142278      -0.14532777       0.08423584       2.01400000       0.28675072       0.19171885      -0.12240340       0.56017971
O       14.97522374      14.85425665      43.86052932        0       0.78045378      -0.08720001      -1.15124258      15.99900000      -0.65619497      -0.26957560      -0.27172614      -1.26705217
H        0.26191240      15.64504268      43.47270660        0      -0.47620229       0.21373575      -0.03743086       2.01400000       0.23367860       0.62957587      -0.13449271       0.64529538
H        0.42230597      14.54826074      44.56715839        0      -0.36173749      -0.01726347      -0.05317177       2.01400000       0.71200133       0.00792761       0.75772255       0.61253667
O        3.06686926      13.96809829      29.62193181        0      -1.39224228      -1.26301050       0.53383872      15.99900000      -0.57242063       1.15798124       0.34973916      -1.21885645
H        2.57486535      14.64066657      30.16940558        0       0.12457787       0.16208785      -0.04938895       2.01400000       0.37026732      -0.76503684      -0.50626919       0.58803862
H        2.73639701      14.06652336      28.70826421        0      -0.19832641      -0.06150918       0.02200063       2.01400000       0.04708531      -0.19025646       0.32712704       0.61342144
O       11.75171841      11.72660451      41.51554339        0       0.25947489       0.37284970       0.72642443      15.99900000       2.25964464       0.13602436      -0.54481181      -1.26372349
H       12.48906685      12.21328089      41.97257509        0      -0.02255126      -0.06874713       0.04367272       2.01400000      -0.03888424      -0.30357458      -0.83349567       0.62634850
H       11.06937472      11.84083782      42.14480691        0       0.31839832       0.42068489      -0.25487556       2.01400000      -1.93439815      -0.02025745       1.46698231       0.63472557
O        0.01081899       4.42403082      23.13407403        0      -0.21628715      -0.87900334       0.37282073      15.99900000       0.74209191       1.35213773      -1.93948459      -1.21642923
H        0.63224755       4.23830292      22.35019566        0      -0.12536530      -0.31179198       0.47822406       2.01400000      -1.15524963      -0.06854220       1.03630547       0.60610020
H        0.10652994       5.45040961      23.14795657        0       0.23727565       0.48440281      -0.22924273       2.01400000       0.01173628      -1.29460412       0.50638382       0.65337014
O       11.81071746       8.42091517      35.82459081        0       0.44617373      -0.37778652       0.36623297      15.99900000      -2.02758118       1.86789811      -0.34533462      -1.20229840
H       11.48668708       8.24537401      34.90812559        0       0.40207687       0.05783933       0.11865318       2.01400000       0.42593893       0.18725443       0.80248097       0.57905674
H       11.15064229       9.16376052      36.19735114        0      -0.30128624      -0.03685554       0.37955803       2.01400000       1.31873963      -2.00211040      -0.34699005       0.63369089
O        9.13298394       5.90398122      46.18152121        0      -1.64572265       0.58335138       0.03623300      15.99900000       0.46211646       0.23084218      -1.10066191      -1.31395698
H        9.63966663       5.08617403      46.01677375        0      -0.11342965       0.08477715       0.21594616       2.01400000      -0.44799614       0.03539966       0.18715264       0.63248974
H        8.76532551       5.90966334      47.05075168        0       0.07806431       0.08612016      -0.02117434       2.01400000      -0.16523000      -0.34376119       0.97022588       0.60226250
O        3.02514850       9.82311887       8.37355624        0       0.57937587      -0.62894239      -0.06089960      15.99900000       0.08683755      -1.73438986       1.00682164      -1.23224592
H        2.46008692       9.36014230       9.07400023        0      -0.25698672      -0.04244480       0.47157288       2.01400000       0.43689246       1.11694135      -1.20658750       0.62780434
H        2.69471918      10.71104516       8.29969509        0      -0.09269102      -0.01661699       0.14489915       2.01400000      -0.52498374       0.80821169       0.11533744       0.62593675
O       11.17083303       4.70880059      19.68565675        0      -1.32926136      -0.47710337      -1.55284434      15.99900000       1.14822630      -1.08240630      -0.14607166      -1.31382394
H       10.71452848       5.38843497      20.21042063        0       0.15040655       0.49502524       0.06040693       2.01400000      -0.39147320       0.51119404       0.47134608       0.69271654
H       11.80429961       4.25524870      20.30380303        0      -0.42075842      -0.02532248       0.20734000       2.01400000      -0.49283772       0.51535291      -0.21101634       0.64289254
O        5.83062060       8.12608454      24.43156397        0       0.80589179       0.10920136       0.89732877      15.99900000       0.29463354       0.51620093       0.72041820      -1.31161332
H        5.15058982       8.73401340      24.84323673        0       0.05723666      -0.44517910       0.04159327       2.01400000      -0.09535679      -0.08340742      -0.58414571       0.68431360
H        5.43066248       7.61359373      23.73180204        0      -0.11830879       0.55651000      -0.16701212       2.01400000      -0.61352990      -0.60168140      -0.68902136       0.62639314
O       14.50948823       9.91030384      34.71298004        0      -0.15699417      -0.99505351       0.17332518      15.99900000      -0.55509827       0.70624794      -1.86452440      -1.20589161
H       13.76787520      10.22257888      34.12595083        0       0.06595188      -0.53316050       0.24733100       2.01400000       0.52819193      -0.25604956       0.00290974       0.62381124
H       14.07372740       9.89199237      35.55723411        0      -0.15687264       0.16598827       0.10021386       2.01400000      -0.23395178      -0.26492410       1.67633907       0.64722741
O        9.51659021       9.68420861      25.83821537        0      -1.39403755       0.15652901      -0.41581890      15.99900000      -0.35308759      -0.88398805       2.33516533      -1.22353923
H        9.76972297      10.51251166      25.46150906        0       0.04252172       0.07801336      -0.02920115       2.01400000       0.62093712       1.34434174      -1.28163746       0.66499025
H        9.53653762       9.92881924      26.79803981        0       0.08236578      -0.33806781       0.07938303       2.01400000      -0.26667822      -0.55272163      -0.67232491       0.58076429
O        4.26347581       9.54691542      15.26076743        0       0.77208508      -0.94032062       0.08780537      15.99900000       0.23161972      -0.07762493      -0.24882164      -1.24333799
H        4.06088374      10.28348255      14.65517206        0       0.18136301       0.00309895       0.01237834       2.01400000      -0.98853367       0.30863846      -0.27191093       0.61586118
H        5.15296672       9.85497009      15.48850325        0       0.48548709       0.18120825      -0.03350903       2.01400000       0.49466146      -0.38328248       0.54129981       0.61140436
O       12.35939585       2.25177770      40.50589710        0       0.34878416      -0.73886452       0.16201886      15.99900000      -0.33796263      -0.19657737       2.45127922      -1.30419707
H       12.45023818       2.12675722      39.58093574        0       0.19116380      -0.26373008      -0.09168821       2.01400000       0.14839699       0.14957738      -1.89269570       0.62886691
H       11.50091770       1.80931542      40.76014193        0      -0.06846806       0.20086818       0.08934992       2.01400000       0.25936291       0.60137973      -0.36969976       0.61949277
O       13.21802494      11.19565560      12.09140261        0      -0.60857490       0.72558543       0.57545426      15.99900000       1.44441574       0.81556230      -0.50685028      -1.20062804
H       14.13290252      11.15820539      12.47543543        0       0.11966395      -0.18391771      -0.04630298       2.01400000      -0.71829479      -0.60505097       0.35986003       0.60151923
H       13.28580930      12.00781637      11.56510483        0       0.25986705      -0.08301650       0.07827350       2.01400000      -0.34137934       0.11420120       0.00228728       0.56943202
O        5.58336138       5.29503784      41.67130669        0      -0.15409615       0.12970077      -1.29506122      15.99900000       0.73434030       0.25584613      -0.43784118      -1.18360066
H        6.36498115       5.57322981      41.13063680        0       0.42214386       0.13169330       0.08069110       2.01400000      -0.08527844      -0.55989131       0.19188896       0.62626135
H        5.11499704       6.12934719      41.64323975        0      -0.18055404       0.38232662      -0.11896123       2.01400000      -0.83929751       0.45766250      -0.01015606       0.59644485
O        0.38901800      17.36264235      42.42172978        0       0.49167802       0.81735206      -1.45001497      15.99900000      -0.99910644       2.70744186      -0.01110293      -1.28601873
H       15.05193470       0.92924932      42.41730360        0       0.03451666      -0.05194127       0.16104457       2.01400000       0.94742293      -2.39242407       0.14902858       0.59084868
H        0.81709956      17.29814399      41.52731740        0      -0.09661476       0.02991611      -0.24385864       2.01400000       0.05250437      -0.13730445       0.22019119       0.62915826
O       12.27569872      16.32979296      17.76114601        0      -0.19671465       2.11448913      -0.69831517      15.99900000       2.04364092      -0.31741634       0.14508435      -1.19930887
H       12.22441552      15.40957008      17.46449333        0      -0.06575584       0.13969336       0.13043596       2.01400000      -0.71085075      -0.35418685      -0.21672602       0.60060126
H       13.27740404      16.37341163      17.81864399        0       0.07863590      -0.35462160      -0.13659261       2.01400000      -1.19386398       0.53581487       0.44133769       0.59913695
O        6.58403092       6.34444279      34.62127895        0       0.32125489       0.40272590      -0.19501196      15.99900000       2.21679672      -1.07172876      -0.98986677      -1.17557442
H        6.32479241       5.42399818      34.39203031        0      -0.09292336       0.09805874      -0.28819488       2.01400000      -0.73145524      -0.12089999       0.15541941       0.62100244
H        7.54187203       6.21418018      34.29760442        0       0.06112304       0.57287314       0.06607594       2.01400000      -1.59719940       1.12520158       0.73552483       0.56785989
O        9.69332757       5.30847527      33.88638095        0       0.04368831       0.48024583       0.44739932      15.99900000      -0.00031578      -0.57652436      -2.40733538      -1.26330090
H        9.12621646       4.97830724      34.63040087        0      -0.24701863       0.05620060       0.39515227       2.01400000       0.25928015      -0.60346317       0.37512341       0.70990455
H        9.72434615       4.63973413      33.12788220        0      -0.19861415      -0.39043403      -0.06235242       2.01400000      -0.56934876       1.13767923       1.61249585       0.56961298
O        4.28813292       1.84944183      30.97293579        0       0.59187297       1.91727749       0.90024288      15.99900000       0.39771475      -1.20457881      -0.89764297      -1.29580736
H        3.85014011       2.62918627      31.30236480        0      -0.14371746       0.12135246       0.27707943       2.01400000      -0.72025711       0.23418971       0.86092159       0.62494659
H        4.14889928       1.01690701      31.47862827        0       0.11944334       0.24201055       0.00479104       2.01400000       0.12690510       0.80041224       0.44760232       0.63223565
O        4.55836544       8.71573469      43.64752919        0       0.06696126       1.03752133       0.77909119      15.99900000       0.67022002       0.34902215      -0.11084401      -1.24044442
H        5.27951333       8.27668165      43.13705097        0       0.24681389      -0.05467230       0.23354630       2.01400000      -1.27274341       0.20684252       0.35458462       0.57128811
H        3.70208556       8.23598180      43.59707930        0      -0.06354472       0.07548523      -0.65178996       2.01400000       0.91950977      -0.49195171      -0.26136760       0.66768348
O       15.02593682      15.52889100      16.23759178        0      -0.68418171       0.10545387      -1.47728444      15.99900000      -0.20715454      -1.25359729      -1.50213064      -1.21745217
H        0.18385617      14.89568229      16.91118263        0      -0.04672589      -0.06091504      -0.10104239       2.01400000       0.24818763      -0.45398095       0.55533048       0.61081666
H       14.86323563      16.33510932      16.67905608        0      -0.51432693       0.11341348      -0.06798575       2.01400000      -0.05920826       1.66942794       0.99364538       0.62812567
O        3.94662132      12.07997454      31.36905539        0       0.12840299       0.43686021       0.12538285      15.99900000       0.50754136      -1.76009996       1.28492626      -1.26321483
H        3.34248393      11.30100853      31.37947551        0      -0.47541796      -0.22641615      -0.21289055       2.01400000       0.29281122       0.51525380      -0.02122244       0.57482624
H        3.51720619      12.72099973      30.82107983        0       0.34904499      -0.21985230      -0.10278811       2.01400000      -0.57036518       1.13354755      -1.20722429       0.66874838
O        1.68814491      16.67920764       8.88794975        0       0.68548748      -0.80084856       0.65938719      15.99900000       0.09019132       0.74255315       0.27832083      -1.21773791
H        1.35201066       0.00403074       8.38371707        0      -0.22240435      -0.31056868       0.08513358       2.01400000       0.23454966      -0.69729372      -0.19024875       0.59235209
H        2.25318044      16.12724845       8.34989047        0       0.12547166      -0.03383463       0.26811781       2.01400000       0.02562578      -0.06435628      -0.67232595       0.57180977
O        2.37899098      17.21747479      22.82288094        0       0.26085425       0.18699755      -0.23484217      15.99900000      -0.51757587      -0.66307387      -0.65073347      -1.24216866
H        2.70317508       0.63667687      23.11715239        0       0.20131367       0.03738372      -0.37175694       2.01400000       0.13302075       0.50711760       0.04046249       0.59266365
H        1.43230188      17.34035888      22.52754293        0       0.38202393       0.39002619      -0.18560029       2.01400000       0.52932178      -0.04317765       0.33260189       0.62548143
O       12.23450286      11.71400319      15.43911501        0       1.24451271      -0.11793062       0.28389435      15.99900000       0.76678210       0.69515367       0.64894211      -1.21266067
H       12.09739431      12.29695967      14.66362562        0      -0.34788595       0.35731544      -0.19137991       2.01400000      -0.00249198      -0.19695479       0.88153115       0.58598107
H       12.26415779      12.27646976      16.28394708        0       0.60534874      -0.24076096      -0.16110697       2.01400000      -0.58174932      -0.42500222      -1.21311466       0.61717761
O        7.60792444      12.55494622      25.00904438        0      -0.03798825       0.60255625      -0.37177063      15.99900000       0.28601753       1.23380094      -2.49757161      -1.18832231
H        7.59159355      13.27665983      25.65759783        0      -0.03268595       0.09135858      -0.10734267       2.01400000       0.02207692      -0.07825809      -0.37826988       0.61660510
H        7.65333859      13.01772520      24.07500834        0      -0.14690330       0.07403951       0.36391692       2.01400000      -0.24242905      -1.23452149       2.76741906       0.56149900
O       12.94108704       3.43274848      30.91867195        0      -0.59400240       0.73044895       0.21237824      15.99900000       0.51750350      -0.00570910       0.90955717      -1.27370524
H       12.47016864       2.67660620      30.53144158        0      -0.37282644       0.41744546       0.25170443       2.01400000      -0.51529039      -0.18607268      -0.68077116       0.63612622
H       12.83050872       3.30981335      31.89797082        0       0.81563786       0.00860977       0.13964445       2.01400000      -0.13099648       0.22537833      -0.44666694       0.60282326
O       14.71089079       7.42056103      38.28212932        0       0.24344289      -0.58863953       1.70011019      15.99900000      -0.92295799       0.81133473       0.03895388      -1.22279406
H       13.76257718       7.37658076      37.99846413        0       0.14317341       0.28817970      -0.28885060       2.01400000       0.75545279      -0.56504302       0.03667170       0.60914141
H       14.73745845       8.29816189      38.71679423        0       0.02798339       0.56863771       0.09562340       2.01400000       0.38423761      -0.40502807       0.00350131       0.58071846
O       10.35352913      14.32504563      10.49054927        0       0.58852493      -0.61103325       0.01606288      15.99900000      -0.14689747      -0.26180711      -0.18154179      -1.26444924
H        9.54518070      13.77509285      10.37017885        0       0.24972278      -0.08437956      -0.24077734       2.01400000       0.42024251      -0.27608690      -0.75338708       0.62544584
H       10.01007361      14.96321302      11.11822356        0      -0.18482657       0.50946876       0.36855232       2.01400000       0.31219898       0.75870417       0.96097882       0.61756444
O        6.34014880      15.74779432       9.86467114        0       1.58112286      -1.03177885      -0.12921092      15.99900000      -0.31037998       1.12913488       0.88883308      -1.23400998
H        6.02952990      16.70294131       9.79935312        0      -0.09655728      -0.22666737      -0.17421334       2.01400000       0.40818947      -1.48019163       0.24996468       0.60165650
H        6.43447138      15.59930521      10.86454968        0      -0.10414897       0.31190377      -0.06004917       2.01400000      -0.28502599       0.47968428      -1.26526104       0.62859857
O        8.23404297      13.19975927       9.38759289        0       0.17212569       0.88704454      -0.46527183      15.99900000      -0.23188320       0.94416346      -0.04502309      -1.19362366
H        7.72248903      14.04350598       9.39799259        0      -0.06323576       0.20002436      -0.24272292       2.01400000       0.47298321      -0.45126433      -0.16497084       0.62085664
H        7.55144791      12.59352574       9.70880594        0      -0.37585555      -0.01250066      -0.23408319       2.01400000      -0.36606307      -0.17478270       0.03435002       0.64424777
O        5.22957814      15.59703823      28.18889530        0      -1.01747205       0.50629151       0.59063640      15.99900000       4.94714581      -1.55250644      -1.67843237      -1.24632895
H        5.43373110      14.58916762      28.07904090        0       0.02121546       0.14685437      -0.04605501       2.01400000      -1.35372367       1.24290479       0.11447674       0.67603886
H        4.43971373      15.86381078      28.52710496        0      -0.07672747      -0.15466269      -0.27091734       2.01400000      -3.64917001       0.34008196       1.55815345       0.55977643
O       12.81413143       7.69249195      44.77180612        0       0.32062676       0.54409485       0.53263967      15.99900000      -0.27804750       0.05710387      -0.65692557      -1.32343841
H       11.99864411       8.30977934      44.74781303        0       0.37618967       0.35948753      -0.14974350       2.01400000      -0.09837150      -0.16038222      -0.59664752       0.67472255
H       12.95161811       7.62697836      45.70043533        0       0.62454784      -0.33814936       0.09397125       2.01400000       0.54009968      -0.35290733       1.35219433       0.60089445
O        7.98695914       8.84992521      22.91670260        0       1.24215379      -0.76703454       0.43925655      15.99900000       0.05971657      -1.07257458       0.55320035      -1.28719854
H        8.46398726       7.93622308      23.12868126        0      -0.15040649      -0.40042349      -0.36620658       2.01400000      -0.58859350       1.67151899      -0.47230473       0.61442685
H        7.25007743       8.82642185      23.58632377        0      -0.22278901      -0.02962656      -0.55289249       2.01400000       0.35454354       0.13746289      -0.51740108       0.60571140
O       12.64441554       5.71597438      29.32376538        0      -1.10111312      -2.51068596      -0.36376046      15.99900000       0.32185228       0.03659588       0.01569182      -1.21585453
H       13.30631621       5.52602057      28.62818618        0       0.18674908      -0.18185899      -0.15274948       2.01400000       0.04535429      -0.02010042       0.05405494       0.61188257
H       12.69805388       5.02581264      30.01296735        0      -0.02887055      -0.34291510       0.08466452       2.01400000       0.13076674      -0.51312598      -0.32691083       0.62669396
O        9.23276383       6.67926419      23.47684964        0      -0.51073211      -1.31324041      -0.22930241      15.99900000       0.87460662       0.39330529      -1.50204569      -1.25244021
H        9.88541445       7.03308038      24.11875283        0       0.22840090       0.17343055       0.09715188       2.01400000      -0.02756714      -0.40619654       0.84655649       0.69390887
H        8.58301981       6.17872977      23.94423619        0      -0.22151126       0.01012211       0.25972004       2.01400000      -0.65526725      -0.55602151       1.02883318       0.63585693
O       14.81759889       4.16795234      37.37971822        0       0.17985795      -0.40322313      -0.39951486      15.99900000       0.26094476       0.10615932       0.73516942      -1.22665429
H       14.46600548       5.06567787      37.15708949        0      -0.21275001      -0.49966768       0.26417513       2.01400000       0.36727065      -1.12160432      -0.65847444       0.61406118
H       15.08276929       3.56889267      36.63731407        0      -0.03780329      -0.12338734      -0.07605089       2.01400000      -1.00412815       1.30973332       0.11322267       0.63965219
O        6.96587802      16.48567080      25.46173385        0      -0.74524816      -0.25206617      -0.59565605      15.99900000       1.49246780       0.85548491       0.79259325      -1.20169854
H        7.67503921      16.84864980      26.09628930        0       0.01500776      -0.07313938      -0.14346083       2.01400000      -0.84469506      -0.55033726      -0.96108129       0.60479760
H        6.39997385      16.18355449      26.17407035        0       0.26797008      -0.18852220       0.52463178       2.01400000      -0.94590525      -0.39666121       0.26822579       0.59269542
O        0.19881958      11.44889662      16.33904396        0      -2.15586448       0.75315082       0.74789429      15.99900000       1.17190403      -1.16309288      -1.72112385      -1.19781101
H       14.43361626      11.76256815      16.05620753        0       0.10859953       0.47415881      -0.10536703       2.01400000      -0.64243318       0.08206292      -0.05071552       0.57986760
H        0.52481844      10.97915800      15.46826920        0       0.40832349       0.11374329      -0.25010537       2.01400000      -0.59786035       1.30142620       1.35177773       0.58898896
O        6.78379808       2.69782253      40.38086219        0       1.26885310       1.41817998      -0.68029694      15.99900000      -0.17322074      -0.35883476       3.50876734      -1.19462371
H        6.46237638       2.01633282      39.79520926        0       0.14303971       0.32469893       0.42334236       2.01400000      -0.42135136      -1.12062077      -0.56415018       0.61717719
H        6.68364896       2.26946758      41.34253130        0       0.24290656       0.49103154       0.17745160       2.01400000       0.34911178       1.25740265      -2.64639568       0.55776638
O        3.70695156       1.92181132      37.70130140        0      -1.01013677       1.26974802       0.55994243      15.99900000      -0.78997111       1.33347000       0.16925563      -1.19664979
H        3.43578118       2.79475695      38.13785989        0      -0.06594584       0.34165545      -0.00050425       2.01400000       0.29641430      -1.48740228      -0.59801926       0.62047744
H        4.12361907       2.26945302      36.88661090        0      -0.17471738       0.12434363       0.25906988       2.01400000      -0.09915873      -0.24760030       0.66745495       0.59694195
O        4.53253860      13.92235806      20.69622202        0      -0.85730541      -1.02919985       0.42061204      15.99900000      -0.18553853      -0.07259873       0.31107166      -1.25323248
H        5.22366918      13.90919236      20.03440537        0      -0.39704462       0.20503267      -0.05598009       2.01400000       0.12076910       0.35070822      -1.08657378       0.60188818
H        4.82896028      14.44079683      21.46181747        0      -0.36011690       0.34531774       0.28099848       2.01400000      -0.35589486       0.32009307       0.31345930       0.63990104
O       10.35417899      15.81401694      15.23626764        0       0.57197912       0.13305381      -0.80402587      15.99900000      -0.01879787       0.73272375      -0.27785475      -1.22816753
H        9.69713759      16.55725724      15.23724726        0      -0.18126738       0.00007832       0.22351105       2.01400000       0.34914305      -0.51521772       0.45901900       0.63673836
H       10.01243672      15.00666264      15.63404187        0      -0.12308763       0.18418688      -0.19366910       2.01400000      -0.46204373      -0.17596239      -0.04506805       0.59228301
O        9.67248582      15.20794153      29.01914140        0       0.36107222       1.23617863      -0.19480263      15.99900000      -0.01749201      -1.30552594       0.26674952      -1.25701463
H        9.38834578      14.23817110      29.15775714        0      -0.39878800      -0.12713117      -0.08528923       2.01400000      -0.06931704       2.44629704      -0.06331727       0.60110873
H        8.91238605      15.85909023      28.95351626        0      -0.08810269       0.44208216       0.12545930       2.01400000       0.30427058      -1.13634152      -0.14370889       0.67428511
O        0.25283188       7.05584767      30.53245968        0      -0.29839584      -0.51763771      -0.13443265      15.99900000       0.06808991       0.61539190      -0.25818295      -1.24827611
H       15.05098774       7.46531481      31.37498387        0      -0.29493074      -0.27388040       0.59352234       2.01400000       0.37475302       0.26799588       0.43790408       0.65238893
H       14.57518359       6.53558932      30.34654909        0      -0.07395784      -0.06922477       0.01125313       2.01400000      -0.50962600      -0.67839121      -0.62650993       0.58480608
O       11.58434716      10.26652764      30.19990345        0      -0.60325744       0.36897423      -0.23940948      15.99900000      -1.08950238       0.58891540      -1.29788805      -1.28259349
H       11.66598481       9.31185959      30.35542505        0      -0.39191000      -0.35939952       0.44732416       2.01400000       0.05263859      -0.66864109       0.28992857       0.65312755
H       10.75097921      10.32869592      29.62010268        0       0.34536933      -0.35297883      -0.06357404       2.01400000       1.01539744       0.00733238       1.15875953       0.61443120
O        7.38019519       3.49690885      29.14622136        0       0.09540229      -1.29137678       0.41616968      15.99900000       0.90125229       2.28551531      -0.41212156      -1.28220558
H        7.19239714       4.43389919      28.77290222        0       0.07048626       0.08962643      -0.02067611       2.01400000      -0.00820204      -2.17094594       0.14720573       0.60219914
H        6.58446532       2.94694886      29.05566779        0       0.00724039      -0.06656722      -0.01958135       2.01400000      -0.51837381      -0.51147358      -0.12853595       0.68008006
O        4.01080919       6.59832145      27.98617803        0      -0.71242708      -0.35372268       0.12938636      15.99900000       1.25458621      -0.49853208       0.15754853      -1.24834025
H        3.44717697       6.17651754      28.65483969        0      -0.34781461      -0.40191016       0.12192185       2.01400000      -0.36457158       0.10265787       0.71841919       0.65614051
H        4.92532791       6.22230893      28.21375546        0       0.08140119      -0.23639785      -0.06304630       2.01400000      -1.00056718       0.15927390      -1.14125499       0.63609439
O        7.45049345       3.27110931      23.46106981        0       1.26237566       0.72241505      -1.31383849      15.99900000       0.76939010      -0.38457064       1.45902033      -1.30363262
H        7.50017211       3.21644498      22.51692883        0      -0.13927288      -0.28344690      -0.36915314       2.01400000      -0.51535195       0.61834117      -1.72612859       0.64809227
H        8.42964573       3.14730479      23.65123564        0       0.22110732      -0.30508226       0.23528365       2.01400000      -0.32775482      -0.05441101       0.24870385       0.67660409
O        2.96543734       3.27722257      44.50839754        0       0.51227402      -0.05169584      -0.08875285      15.99900000       0.72397496       0.05572291       0.71455471      -1.23305726
H        3.75945370       3.39074274      45.07511612        0      -0.06591835       0.07368660      -0.08305801       2.01400000      -0.61099858      -0.16340045      -0.53687105       0.59725565
H        3.07260284       2.42729717      44.05664295        0      -0.42879873      -0.44267347       0.61159971       2.01400000       0.36979303      -0.41803153       0.15114742       0.62136996
O        0.23390499       8.41886105      43.79171935        0       0.36528488       1.32184457      -0.40649440      15.99900000      -0.11123157      -2.74169000       0.75605759      -1.28401232
H       14.43483968       8.21745579      44.13514558        0       0.07411259      -0.03621034      -0.15813778       2.01400000       0.14822347      -0.11941437      -0.13628824       0.62740117
H        0.21877140       9.31680814      43.60305286        0      -0.37755086       0.22513286      -0.18259801       2.01400000      -0.09234068       2.73782752      -0.63628239       0.59728998
O       14.32170340       3.18825611      34.93791492        0       0.36957874      -0.81358117      -0.82784812      15.99900000       1.60206405       1.80801292      -0.66534472      -1.19984460
H       14.68475647       2.34164187      34.69805711        0       0.28609768       0.26545034       0.09791724       2.01400000       0.46344735      -1.37249905      -0.30054683       0.64530456
H       14.94465881       3.82405942      34.45237852        0      -0.01859022       0.03303749      -0.59632261       2.01400000      -0.94342953      -0.61605235       0.77974370       0.59639955
O       10.80739829      12.63900684      21.80724529        0      -0.35907384       0.99058607      -1.28489191      15.99900000       0.30161357      -0.42355810      -0.00460627      -1.22686672
H       11.58946921      12.09286134      21.64508314        0      -0.31480563       0.00879935       0.07821005       2.01400000       0.11946976       0.09118751      -0.05829908       0.56380582
H       10.07859401      11.99142483      22.07264201        0      -0.03096438       0.17272964      -0.24161713       2.01400000       0.45541908       0.72824392      -0.38957453       0.64392775
O       10.23472656       3.65760325      44.86659997        0      -1.26805632       0.45691096       0.18003192      15.99900000       0.31792547       0.53987829      -1.42427094      -1.26506495
H        9.79707083       2.99906707      44.26749072        0       0.39092980      -0.31344314      -0.02940814       2.01400000      -0.00964771       0.09530527       0.51637769       0.61938483
H       10.52866615       4.32953386      44.19280486        0       0.09149494      -0.03550410      -0.22977211       2.01400000      -0.31933792      -0.26109974       0.62762991       0.57516730
O        6.35822883      12.74413135       6.74562733        0      -0.27351309      -0.65074213       0.21146620      15.99900000      -0.04684442      -1.66461382      -0.38015799      -1.22207785
H        6.08959637      13.62945692       6.60396993        0      -0.25418475       0.06414666      -0.11235455       2.01400000      -0.18814479       1.37782589       0.03608747       0.63284749
H        6.95053028      12.69693325       7.49344696        0       0.07245404       0.20456667      -0.07804957       2.01400000       0.28866220       0.32884107       0.33636956       0.62277198
O        4.11256153       0.44768175      13.07805967        0       0.29935887       0.57786852       1.09085375      15.99900000       0.27611620       0.32736284       0.14167081      -1.29854429
H        4.23837246       0.31553736      12.12170033        0       0.23580381      -0.51656695      -0.20885700       2.01400000      -0.25732089      -0.30382874       0.04512901       0.60479385
H        3.40188027      17.37432303      13.55852593        0       0.17029822       0.39825498       0.15983045       2.01400000       0.23022991       0.04199804      -0.31587205       0.64690244
O        6.09364637       1.73895745      43.41925873        0      -0.38319661       0.54592464       0.74867510      15.99900000       1.85068473       0.70775889       0.50694776      -1.29071999
H        6.24872222       2.46031569      44.11676882        0      -0.58203197       0.52931626       0.19513843       2.01400000      -0.56700950      -0.49535965      -0.60965617       0.66496235
H        5.19444489       1.74920444      43.12877930        0       0.31329564       0.30854142       0.44201191       2.01400000      -1.15759938      -0.10715961      -0.01393636       0.61204034
O        4.68475442      13.51185937      25.05770142        0      -0.40681482       0.09783117      -0.37317596      15.99900000       0.29345550       0.61918793       0.47947789      -1.26513588
H        4.01209262      13.56353319      25.76133031        0       0.31455258       0.01846631       0.16504745       2.01400000      -0.52453708       0.14294789      -0.83188669       0.61944133
H        4.49744200      12.83950436      24.37092210        0       0.36119458       0.27907279      -0.11514653       2.01400000      -0.37942349      -0.34904496       0.06123158       0.68184805
O        5.63829876       4.24525582      25.13446232        0      -0.97218789      -0.56474049       0.39493819      15.99900000      -0.23657053      -0.03512285      -0.40593297      -1.26541698
H        6.33060454       3.80550678      24.58730054        0      -0.24646717      -0.07449117       0.07031902       2.01400000       0.12605558       0.05501455      -0.03761667       0.66925794
H        5.24832448       4.88521138      24.51621200        0      -0.32439058      -0.16991853       0.32640009       2.01400000      -0.23673559      -0.04637302       0.38790077       0.58563370
